     Program PWSCF v.5.0.2 (svn rev. 9392) starts on 19Apr2014 at  9: 9:54

     Current dimensions of program PWSCF are:
     Max number of different atomic species (ntypx) = 10
     Max number of k-points (npk) =  40000
     Max angular momentum in pseudopotentials (lmaxx) =  3
     Waiting for input...
     Reading input from standard input

     bravais-lattice index     =            4
     lattice parameter (alat)  =       6.3764  a.u.
     unit-cell volume          =     274.6567 (a.u.)^3
     number of atoms/cell      =            5
     number of atomic types    =            3
     number of electrons       =        24.00
     number of Kohn-Sham states=           12
     kinetic-energy cutoff     =     100.0000  Ry
     charge density cutoff     =     320.0000  Ry
     convergence threshold     =      1.0E-06
     mixing beta               =       0.3000
     number of iterations used =           16  local-TF  mixing
     Exchange-correlation      = PBE ( 1 4 3 4 0)
     EXX-fraction              =        0.00
     nstep                     =           50

     celldm(1)=   6.376400  celldm(2)=   0.000000  celldm(3)=   1.223300
     celldm(4)=   0.000000  celldm(5)=   0.000000  celldm(6)=   0.000000

     crystal axes: (cart. coord. in units of alat)
               a(1) = (   1.000000   0.000000   0.000000 )
               a(2) = (  -0.500000   0.866025   0.000000 )
               a(3) = (   0.000000   0.000000   1.223300 )

     reciprocal axes: (cart. coord. in units 2 pi/alat)
               b(1) = (  1.000000  0.577350 -0.000000 )
               b(2) = (  0.000000  1.154701  0.000000 )
               b(3) = (  0.000000 -0.000000  0.817461 )

     PseudoPot. # 1 for H  read from file:
     /home/ilia/espresso/pseudo/H.pbe-sp-mt.ncpp
     MD5 check sum: 7a641936b52ccecd26bd1ad87cca5aed
     Pseudo is Norm-conserving, Zval =  1.0
     Generated by old ld1 code (numerical format)
     Using radial grid of 1076 points,  0 beta functions with:

     PseudoPot. # 2 for O  read from file:
     /home/ilia/espresso/pseudo/O.pbe-sp-mt.ncpp
     MD5 check sum: 8a3d23d410d2f3ebfd0a39faacc72cbb
     Pseudo is Norm-conserving, Zval =  6.0
     Generated by old ld1 code (numerical format)
     Using radial grid of 1130 points,  1 beta functions with:
                l(1) =   1

     PseudoPot. # 3 for Ca read from file:
     /home/ilia/espresso/pseudo/Ca.pbe-sp-mt_ion2.ncpp
     MD5 check sum: 4bcd670d05521f7b178fdf0a334578ab
     Pseudo is Norm-conserving, Zval = 10.0
     Generated by old ld1 code (numerical format)
     Using radial grid of 1153 points,  1 beta functions with:
                l(1) =   1

     atomic species   valence    mass     pseudopotential
        H              1.00     1.00700     H ( 1.00)
        O              6.00    16.00000     O ( 1.00)
        Ca            10.00    40.07800     Ca( 1.00)

     12 Sym. Ops., with inversion, found

   Cartesian axes

     site n.     atom                  positions (alat units)
         1           Ca  tau(   1) = (   0.0000000   0.0000000   0.0000000  )
         2           O   tau(   2) = (   0.0000000   0.5773503   0.2850289  )
         3           O   tau(   3) = (   0.5000000   0.2886751   0.9382711  )
         4           H   tau(   4) = (   0.0000000   0.5773503   0.5309122  )
         5           H   tau(   5) = (   0.5000000   0.2886751   0.6923878  )

     number of k points=    63
                       cart. coord. in units 2pi/alat
        k(    1) = (   0.0833333   0.1443376   0.0681217), wk =   0.0370370
        k(    2) = (   0.0833333   0.1443376   0.2043652), wk =   0.0370370
        k(    3) = (   0.0833333   0.1443376   0.3406087), wk =   0.0370370
        k(    4) = (   0.0833333   0.3367877   0.0681217), wk =   0.0370370
        k(    5) = (   0.0833333   0.3367877   0.2043652), wk =   0.0370370
        k(    6) = (   0.0833333   0.3367877   0.3406087), wk =   0.0370370
        k(    7) = (   0.0833333   0.5292377   0.0681217), wk =   0.0370370
        k(    8) = (   0.0833333   0.5292377   0.2043652), wk =   0.0370370
        k(    9) = (   0.0833333   0.5292377   0.3406087), wk =   0.0370370
        k(   10) = (   0.0833333  -0.4330127   0.0681217), wk =   0.0370370
        k(   11) = (   0.0833333  -0.4330127   0.2043652), wk =   0.0370370
        k(   12) = (   0.0833333  -0.4330127   0.3406087), wk =   0.0370370
        k(   13) = (   0.0833333  -0.2405626   0.0681217), wk =   0.0370370
        k(   14) = (   0.0833333  -0.2405626   0.2043652), wk =   0.0370370
        k(   15) = (   0.0833333  -0.2405626   0.3406087), wk =   0.0370370
        k(   16) = (   0.0833333  -0.0481125   0.0681217), wk =   0.0185185
        k(   17) = (   0.0833333  -0.0481125   0.2043652), wk =   0.0185185
        k(   18) = (   0.0833333  -0.0481125   0.3406087), wk =   0.0185185
        k(   19) = (   0.2500000   0.4330127   0.0681217), wk =   0.0370370
        k(   20) = (   0.2500000   0.4330127   0.2043652), wk =   0.0370370
        k(   21) = (   0.2500000   0.4330127   0.3406087), wk =   0.0370370
        k(   22) = (   0.2500000   0.6254628   0.0681217), wk =   0.0370370
        k(   23) = (   0.2500000   0.6254628   0.2043652), wk =   0.0370370
        k(   24) = (   0.2500000   0.6254628   0.3406087), wk =   0.0370370
        k(   25) = (   0.2500000  -0.3367877   0.0681217), wk =   0.0370370
        k(   26) = (   0.2500000  -0.3367877   0.2043652), wk =   0.0370370
        k(   27) = (   0.2500000  -0.3367877   0.3406087), wk =   0.0370370
        k(   28) = (   0.2500000  -0.1443376   0.0681217), wk =   0.0185185
        k(   29) = (   0.2500000  -0.1443376   0.2043652), wk =   0.0185185
        k(   30) = (   0.2500000  -0.1443376   0.3406087), wk =   0.0185185
        k(   31) = (   0.4166667   0.7216878   0.0681217), wk =   0.0370370
        k(   32) = (   0.4166667   0.7216878   0.2043652), wk =   0.0370370
        k(   33) = (   0.4166667   0.7216878   0.3406087), wk =   0.0370370
        k(   34) = (   0.4166667  -0.2405626   0.0681217), wk =   0.0185185
        k(   35) = (   0.4166667  -0.2405626   0.2043652), wk =   0.0185185
        k(   36) = (   0.4166667  -0.2405626   0.3406087), wk =   0.0185185
        k(   37) = (  -0.0833333   0.3367877  -0.0681217), wk =   0.0370370
        k(   38) = (  -0.0833333   0.3367877  -0.2043652), wk =   0.0370370
        k(   39) = (  -0.0833333   0.3367877  -0.3406087), wk =   0.0370370
        k(   40) = (  -0.0833333   0.5292377  -0.0681217), wk =   0.0370370
        k(   41) = (  -0.0833333   0.5292377  -0.2043652), wk =   0.0370370
        k(   42) = (  -0.0833333   0.5292377  -0.3406087), wk =   0.0370370
        k(   43) = (  -0.0833333  -0.4330127  -0.0681217), wk =   0.0370370
        k(   44) = (  -0.0833333  -0.4330127  -0.2043652), wk =   0.0370370
        k(   45) = (  -0.0833333  -0.4330127  -0.3406087), wk =   0.0370370
        k(   46) = (  -0.0833333  -0.2405626  -0.0681217), wk =   0.0370370
        k(   47) = (  -0.0833333  -0.2405626  -0.2043652), wk =   0.0370370
        k(   48) = (  -0.0833333  -0.2405626  -0.3406087), wk =   0.0370370
        k(   49) = (  -0.0833333  -0.0481125  -0.0681217), wk =   0.0185185
        k(   50) = (  -0.0833333  -0.0481125  -0.2043652), wk =   0.0185185
        k(   51) = (  -0.0833333  -0.0481125  -0.3406087), wk =   0.0185185
        k(   52) = (  -0.2500000   0.6254628  -0.0681217), wk =   0.0370370
        k(   53) = (  -0.2500000   0.6254628  -0.2043652), wk =   0.0370370
        k(   54) = (  -0.2500000   0.6254628  -0.3406087), wk =   0.0370370
        k(   55) = (  -0.2500000  -0.3367877  -0.0681217), wk =   0.0370370
        k(   56) = (  -0.2500000  -0.3367877  -0.2043652), wk =   0.0370370
        k(   57) = (  -0.2500000  -0.3367877  -0.3406087), wk =   0.0370370
        k(   58) = (  -0.2500000  -0.1443376  -0.0681217), wk =   0.0185185
        k(   59) = (  -0.2500000  -0.1443376  -0.2043652), wk =   0.0185185
        k(   60) = (  -0.2500000  -0.1443376  -0.3406087), wk =   0.0185185
        k(   61) = (  -0.4166667  -0.2405626  -0.0681217), wk =   0.0185185
        k(   62) = (  -0.4166667  -0.2405626  -0.2043652), wk =   0.0185185
        k(   63) = (  -0.4166667  -0.2405626  -0.3406087), wk =   0.0185185

     Largest allocated arrays     est. size (Mb)     dimensions
     Largest temporary arrays     est. size (Mb)     dimensions

     Initial potential from superposition of free atoms

     starting charge   21.99998, renormalised to   24.00000
     Starting wfc are   14 randomized atomic wfcs

     Self-consistent Calculation

     iteration #  1     ecut=   100.00 Ry     beta=0.30
     Davidson diagonalization with overlap
     ethr =  1.00E-02,  avg # of iterations =  2.0

     total energy              =    -140.02133883 Ry
     Harris-Foulkes estimate   =    -140.10522362 Ry
     estimated scf accuracy    <       0.46938961 Ry

[...]

     End of self-consistent calculation

          k = 0.0833 0.1443 0.0681 (  4615 PWs)   bands (ev):

   -30.3181 -13.3809 -13.0595 -11.6630 -11.3563 -10.5512  -0.2007   1.9107
     4.3152   4.4475   5.4972   5.9647

[...]

          k =-0.0833 0.3368-0.0681 (  4639 PWs)   bands (ev):

[...]

!    total energy              =    -139.90281885 Ry
     Harris-Foulkes estimate   =    -139.90281944 Ry
     estimated scf accuracy    <       0.00000082 Ry

     The total energy is the sum of the following terms:

     one-electron contribution =     -47.54928532 Ry
     hartree contribution      =      35.95371700 Ry
     xc contribution           =     -26.59828652 Ry
     ewald contribution        =    -101.70896401 Ry

     convergence has been achieved in  11 iterations

     Forces acting on atoms (Ry/au):

     atom    1 type  3   force =     0.00000000    0.00000000    0.00000000
     atom    2 type  2   force =     0.00000000    0.00000000   -0.26814334
     atom    3 type  2   force =     0.00000000   -0.00000000    0.26814334
     atom    4 type  1   force =     0.00000000    0.00000000    0.37778630
     atom    5 type  1   force =     0.00000000   -0.00000000   -0.37778630

     Total force =     0.655169     Total SCF correction =     0.001783

     entering subroutine stress ...

          total   stress  (Ry/bohr**3)                   (kbar)     P=  593.90
   0.00278927   0.00000000   0.00000000        410.32      0.00      0.00
   0.00000000   0.00278927   0.00000000          0.00    410.32      0.00
   0.00000000   0.00000000   0.00653324          0.00      0.00    961.07

     BFGS Geometry Optimization

     number of scf cycles    =   1
     number of bfgs steps    =   0

     enthalpy new            =    -138.7825715049 Ry

     new trust radius        =       0.3777862980 bohr
     new conv_thr            =       0.0000010000 Ry

     new unit-cell volume =    273.01910 a.u.^3 (    40.45726 Ang^3 )

CELL_PARAMETERS (alat=  6.37640000)
   0.967763805  -0.000000000   0.000000000
  -0.483881902   0.838108040   0.000000000
   0.000000000   0.000000000   1.298365575

ATOMIC_POSITIONS (crystal)
Ca       0.000000000   0.000000000   0.000000000
O        0.333333333   0.666666667   0.198623751
O        0.666666667   0.333333333   0.801376249
[...]
Ca       0.000000000  -0.000000000  -0.000000000
O        0.333333333   0.666666667   0.277149325
O        0.666666667   0.333333333   0.722850675
H        0.333333333   0.666666667   0.536750725
H        0.666666667   0.333333333   0.463249275

     Writing output data file CaOH2_ambient.save
     NEW-OLD atomic charge density approx. for the potential
     NEW k-points:
        k(    1) = (   0.0850653   0.1473374   0.0754636), wk =   0.0370370
        k(    2) = (   0.0850653   0.1473374   0.2263907), wk =   0.0370370
        k(    3) = (   0.0850653   0.1473374   0.3773179), wk =   0.0370370
        k(    4) = (   0.0850653   0.3437872   0.0754636), wk =   0.0370370
        k(    5) = (   0.0850653   0.3437872   0.2263907), wk =   0.0370370
        k(    6) = (   0.0850653   0.3437872   0.3773179), wk =   0.0370370
        k(    7) = (   0.0850653   0.5402371   0.0754636), wk =   0.0370370
        k(    8) = (   0.0850653   0.5402371   0.2263907), wk =   0.0370370
        k(    9) = (   0.0850653   0.5402371   0.3773179), wk =   0.0370370
        k(   10) = (   0.0850653  -0.4420122   0.0754636), wk =   0.0370370
        k(   11) = (   0.0850653  -0.4420122   0.2263907), wk =   0.0370370
        k(   12) = (   0.0850653  -0.4420122   0.3773179), wk =   0.0370370
        k(   13) = (   0.0850653  -0.2455623   0.0754636), wk =   0.0370370
        k(   14) = (   0.0850653  -0.2455623   0.2263907), wk =   0.0370370
        k(   15) = (   0.0850653  -0.2455623   0.3773179), wk =   0.0370370
        k(   16) = (   0.0850653  -0.0491125   0.0754636), wk =   0.0185185
        k(   17) = (   0.0850653  -0.0491125   0.2263907), wk =   0.0185185
        k(   18) = (   0.0850653  -0.0491125   0.3773179), wk =   0.0185185
        k(   19) = (   0.2551958   0.4420122   0.0754636), wk =   0.0370370
        k(   20) = (   0.2551958   0.4420122   0.2263907), wk =   0.0370370
        k(   21) = (   0.2551958   0.4420122   0.3773179), wk =   0.0370370
        k(   22) = (   0.2551958   0.6384620   0.0754636), wk =   0.0370370
        k(   23) = (   0.2551958   0.6384620   0.2263907), wk =   0.0370370
        k(   24) = (   0.2551958   0.6384620   0.3773179), wk =   0.0370370
        k(   25) = (   0.2551958  -0.3437872   0.0754636), wk =   0.0370370
        k(   26) = (   0.2551958  -0.3437872   0.2263907), wk =   0.0370370
        k(   27) = (   0.2551958  -0.3437872   0.3773179), wk =   0.0370370
        k(   28) = (   0.2551958  -0.1473374   0.0754636), wk =   0.0185185
        k(   29) = (   0.2551958  -0.1473374   0.2263907), wk =   0.0185185
        k(   30) = (   0.2551958  -0.1473374   0.3773179), wk =   0.0185185
        k(   31) = (   0.4253264   0.7366869   0.0754636), wk =   0.0370370
        k(   32) = (   0.4253264   0.7366869   0.2263907), wk =   0.0370370
        k(   33) = (   0.4253264   0.7366869   0.3773179), wk =   0.0370370
        k(   34) = (   0.4253264  -0.2455623   0.0754636), wk =   0.0185185
        k(   35) = (   0.4253264  -0.2455623   0.2263907), wk =   0.0185185
        k(   36) = (   0.4253264  -0.2455623   0.3773179), wk =   0.0185185
        k(   37) = (  -0.0850653   0.3437872  -0.0754636), wk =   0.0370370
        k(   38) = (  -0.0850653   0.3437872  -0.2263907), wk =   0.0370370
        k(   39) = (  -0.0850653   0.3437872  -0.3773179), wk =   0.0370370
        k(   40) = (  -0.0850653   0.5402371  -0.0754636), wk =   0.0370370
        k(   41) = (  -0.0850653   0.5402371  -0.2263907), wk =   0.0370370
        k(   42) = (  -0.0850653   0.5402371  -0.3773179), wk =   0.0370370
        k(   43) = (  -0.0850653  -0.4420122  -0.0754636), wk =   0.0370370
        k(   44) = (  -0.0850653  -0.4420122  -0.2263907), wk =   0.0370370
        k(   45) = (  -0.0850653  -0.4420122  -0.3773179), wk =   0.0370370
        k(   46) = (  -0.0850653  -0.2455623  -0.0754636), wk =   0.0370370
        k(   47) = (  -0.0850653  -0.2455623  -0.2263907), wk =   0.0370370
        k(   48) = (  -0.0850653  -0.2455623  -0.3773179), wk =   0.0370370
        k(   49) = (  -0.0850653  -0.0491125  -0.0754636), wk =   0.0185185
        k(   50) = (  -0.0850653  -0.0491125  -0.2263907), wk =   0.0185185
        k(   51) = (  -0.0850653  -0.0491125  -0.3773179), wk =   0.0185185
        k(   52) = (  -0.2551958   0.6384620  -0.0754636), wk =   0.0370370
        k(   53) = (  -0.2551958   0.6384620  -0.2263907), wk =   0.0370370
        k(   54) = (  -0.2551958   0.6384620  -0.3773179), wk =   0.0370370
        k(   55) = (  -0.2551958  -0.3437872  -0.0754636), wk =   0.0370370
        k(   56) = (  -0.2551958  -0.3437872  -0.2263907), wk =   0.0370370
        k(   57) = (  -0.2551958  -0.3437872  -0.3773179), wk =   0.0370370
        k(   58) = (  -0.2551958  -0.1473374  -0.0754636), wk =   0.0185185
        k(   59) = (  -0.2551958  -0.1473374  -0.2263907), wk =   0.0185185
        k(   60) = (  -0.2551958  -0.1473374  -0.3773179), wk =   0.0185185
        k(   61) = (  -0.4253264  -0.2455623  -0.0754636), wk =   0.0185185
        k(   62) = (  -0.4253264  -0.2455623  -0.2263907), wk =   0.0185185
        k(   63) = (  -0.4253264  -0.2455623  -0.3773179), wk =   0.0185185
     extrapolated charge   23.99185, renormalised to   24.00000

[...]

     Threshold (ethr) on eigenvalues was too large:
     Diagonalizing with lowered threshold

     Davidson diagonalization with overlap
     ethr =  1.81E-08,  avg # of iterations =  2.8

[...]

     bfgs converged in  19 scf cycles and  17 bfgs steps
     (criteria: energy < 0.10E-03, force < 0.10E-02, cell < 0.50E+00)

     End of BFGS Geometry Optimization

     Final enthalpy =    -138.9454070936 Ry
Begin final coordinates
     new unit-cell volume =    237.94224 a.u.^3 (    35.25940 Ang^3 )

CELL_PARAMETERS (alat=  6.37640000)
   0.979639808   0.000000000  -0.000000000
  -0.489819904   0.848392960   0.000000000
   0.000000000  -0.000000000   1.104285584

ATOMIC_POSITIONS (crystal)
Ca       0.000000000  -0.000000000  -0.000000000
O        0.333333333   0.666666667   0.277149325
O        0.666666667   0.333333333   0.722850675
H        0.333333333   0.666666667   0.536750725
H        0.666666667   0.333333333   0.463249275
End final coordinates

     A final scf calculation at the relaxed structure.
     The G-vectors are recalculated for the final unit cell
     Results may differ from those at the preceding step.

     bravais-lattice index     =            4
     lattice parameter (alat)  =       6.3764  a.u.
     unit-cell volume          =     237.9422 (a.u.)^3
     number of atoms/cell      =            5
     number of atomic types    =            3
     number of electrons       =        24.00
     number of Kohn-Sham states=           12
     kinetic-energy cutoff     =     100.0000  Ry
     charge density cutoff     =     320.0000  Ry
     convergence threshold     =      1.0E-08
     mixing beta               =       0.3000
     number of iterations used =           16  local-TF  mixing
     Exchange-correlation      = PBE ( 1 4 3 4 0)
     EXX-fraction              =        0.00

     celldm(1)=   6.376400  celldm(2)=   0.000000  celldm(3)=   1.223300
     celldm(4)=   0.000000  celldm(5)=   0.000000  celldm(6)=   0.000000

     crystal axes: (cart. coord. in units of alat)
               a(1) = (   0.979640   0.000000  -0.000000 )
               a(2) = (  -0.489820   0.848393   0.000000 )
               a(3) = (   0.000000  -0.000000   1.104286 )

     reciprocal axes: (cart. coord. in units 2 pi/alat)
               b(1) = (  1.020783  0.589350  0.000000 )
               b(2) = ( -0.000000  1.178699  0.000000 )
               b(3) = (  0.000000 -0.000000  0.905563 )

     PseudoPot. # 1 for H  read from file:
     /home/ilia/espresso/pseudo/H.pbe-sp-mt.ncpp
     MD5 check sum: 7a641936b52ccecd26bd1ad87cca5aed
     Pseudo is Norm-conserving, Zval =  1.0
     Generated by old ld1 code (numerical format)
     Using radial grid of 1076 points,  0 beta functions with:

     PseudoPot. # 2 for O  read from file:
     /home/ilia/espresso/pseudo/O.pbe-sp-mt.ncpp
     MD5 check sum: 8a3d23d410d2f3ebfd0a39faacc72cbb
     Pseudo is Norm-conserving, Zval =  6.0
     Generated by old ld1 code (numerical format)
     Using radial grid of 1130 points,  1 beta functions with:
                l(1) =   1

     PseudoPot. # 3 for Ca read from file:
     /home/ilia/espresso/pseudo/Ca.pbe-sp-mt_ion2.ncpp
     MD5 check sum: 4bcd670d05521f7b178fdf0a334578ab
     Pseudo is Norm-conserving, Zval = 10.0
     Generated by old ld1 code (numerical format)
     Using radial grid of 1153 points,  1 beta functions with:
                l(1) =   1

     atomic species   valence    mass     pseudopotential
        H              1.00     1.00700     H ( 1.00)
        O              6.00    16.00000     O ( 1.00)
        Ca            10.00    40.07800     Ca( 1.00)

     12 Sym. Ops., with inversion, found

   Cartesian axes

     site n.     atom                  positions (alat units)
         1           Ca  tau(   1) = (   0.0000000  -0.0000000  -0.0000000  )
         2           O   tau(   2) = (   0.0000000   0.5655953   0.3060520  )
         3           O   tau(   3) = (   0.4898199   0.2827977   0.7982336  )
         4           H   tau(   4) = (   0.0000000   0.5655953   0.5927261  )
         5           H   tau(   5) = (   0.4898199   0.2827977   0.5115595  )

     number of k points=    63
                       cart. coord. in units 2pi/alat
        k(    1) = (   0.0850653   0.1473374   0.0754636), wk =   0.0370370
        k(    2) = (   0.0850653   0.1473374   0.2263907), wk =   0.0370370
        k(    3) = (   0.0850653   0.1473374   0.3773179), wk =   0.0370370
        k(    4) = (   0.0850653   0.3437872   0.0754636), wk =   0.0370370
        k(    5) = (   0.0850653   0.3437872   0.2263907), wk =   0.0370370
        k(    6) = (   0.0850653   0.3437872   0.3773179), wk =   0.0370370
        k(    7) = (   0.0850653   0.5402371   0.0754636), wk =   0.0370370
        k(    8) = (   0.0850653   0.5402371   0.2263907), wk =   0.0370370
        k(    9) = (   0.0850653   0.5402371   0.3773179), wk =   0.0370370
        k(   10) = (   0.0850653  -0.4420122   0.0754636), wk =   0.0370370
        k(   11) = (   0.0850653  -0.4420122   0.2263907), wk =   0.0370370
        k(   12) = (   0.0850653  -0.4420122   0.3773179), wk =   0.0370370
        k(   13) = (   0.0850653  -0.2455623   0.0754636), wk =   0.0370370
        k(   14) = (   0.0850653  -0.2455623   0.2263907), wk =   0.0370370
        k(   15) = (   0.0850653  -0.2455623   0.3773179), wk =   0.0370370
        k(   16) = (   0.0850653  -0.0491125   0.0754636), wk =   0.0185185
        k(   17) = (   0.0850653  -0.0491125   0.2263907), wk =   0.0185185
        k(   18) = (   0.0850653  -0.0491125   0.3773179), wk =   0.0185185
        k(   19) = (   0.2551958   0.4420122   0.0754636), wk =   0.0370370
        k(   20) = (   0.2551958   0.4420122   0.2263907), wk =   0.0370370
        k(   21) = (   0.2551958   0.4420122   0.3773179), wk =   0.0370370
        k(   22) = (   0.2551958   0.6384620   0.0754636), wk =   0.0370370
        k(   23) = (   0.2551958   0.6384620   0.2263907), wk =   0.0370370
        k(   24) = (   0.2551958   0.6384620   0.3773179), wk =   0.0370370
        k(   25) = (   0.2551958  -0.3437872   0.0754636), wk =   0.0370370
        k(   26) = (   0.2551958  -0.3437872   0.2263907), wk =   0.0370370
        k(   27) = (   0.2551958  -0.3437872   0.3773179), wk =   0.0370370
        k(   28) = (   0.2551958  -0.1473374   0.0754636), wk =   0.0185185
        k(   29) = (   0.2551958  -0.1473374   0.2263907), wk =   0.0185185
        k(   30) = (   0.2551958  -0.1473374   0.3773179), wk =   0.0185185
        k(   31) = (   0.4253264   0.7366869   0.0754636), wk =   0.0370370
        k(   32) = (   0.4253264   0.7366869   0.2263907), wk =   0.0370370
        k(   33) = (   0.4253264   0.7366869   0.3773179), wk =   0.0370370
        k(   34) = (   0.4253264  -0.2455623   0.0754636), wk =   0.0185185
        k(   35) = (   0.4253264  -0.2455623   0.2263907), wk =   0.0185185
        k(   36) = (   0.4253264  -0.2455623   0.3773179), wk =   0.0185185
        k(   37) = (  -0.0850653   0.3437872  -0.0754636), wk =   0.0370370
        k(   38) = (  -0.0850653   0.3437872  -0.2263907), wk =   0.0370370
        k(   39) = (  -0.0850653   0.3437872  -0.3773179), wk =   0.0370370
        k(   40) = (  -0.0850653   0.5402371  -0.0754636), wk =   0.0370370
        k(   41) = (  -0.0850653   0.5402371  -0.2263907), wk =   0.0370370
        k(   42) = (  -0.0850653   0.5402371  -0.3773179), wk =   0.0370370
        k(   43) = (  -0.0850653  -0.4420122  -0.0754636), wk =   0.0370370
        k(   44) = (  -0.0850653  -0.4420122  -0.2263907), wk =   0.0370370
        k(   45) = (  -0.0850653  -0.4420122  -0.3773179), wk =   0.0370370
        k(   46) = (  -0.0850653  -0.2455623  -0.0754636), wk =   0.0370370
        k(   47) = (  -0.0850653  -0.2455623  -0.2263907), wk =   0.0370370
        k(   48) = (  -0.0850653  -0.2455623  -0.3773179), wk =   0.0370370
        k(   49) = (  -0.0850653  -0.0491125  -0.0754636), wk =   0.0185185
        k(   50) = (  -0.0850653  -0.0491125  -0.2263907), wk =   0.0185185
        k(   51) = (  -0.0850653  -0.0491125  -0.3773179), wk =   0.0185185
        k(   52) = (  -0.2551958   0.6384620  -0.0754636), wk =   0.0370370
        k(   53) = (  -0.2551958   0.6384620  -0.2263907), wk =   0.0370370
        k(   54) = (  -0.2551958   0.6384620  -0.3773179), wk =   0.0370370
        k(   55) = (  -0.2551958  -0.3437872  -0.0754636), wk =   0.0370370
        k(   56) = (  -0.2551958  -0.3437872  -0.2263907), wk =   0.0370370
        k(   57) = (  -0.2551958  -0.3437872  -0.3773179), wk =   0.0370370
        k(   58) = (  -0.2551958  -0.1473374  -0.0754636), wk =   0.0185185
        k(   59) = (  -0.2551958  -0.1473374  -0.2263907), wk =   0.0185185
        k(   60) = (  -0.2551958  -0.1473374  -0.3773179), wk =   0.0185185
        k(   61) = (  -0.4253264  -0.2455623  -0.0754636), wk =   0.0185185
        k(   62) = (  -0.4253264  -0.2455623  -0.2263907), wk =   0.0185185
        k(   63) = (  -0.4253264  -0.2455623  -0.3773179), wk =   0.0185185

     Largest allocated arrays     est. size (Mb)     dimensions
     Largest temporary arrays     est. size (Mb)     dimensions

     Initial potential from superposition of free atoms

     starting charge   21.99998, renormalised to   24.00000
     Starting wfc are   14 randomized atomic wfcs

     Writing output data file CaOH2_ambient.save

     Self-consistent Calculation

[...]

     total energy              =    -139.91502499 Ry
     Harris-Foulkes estimate   =    -139.91502500 Ry
     estimated scf accuracy    <       0.00000003 Ry

     iteration # 12     ecut=   100.00 Ry     beta=0.30
     Davidson diagonalization with overlap
     ethr =  1.37E-10,  avg # of iterations =  2.0

     End of self-consistent calculation

[...]

          k = 0.4253-0.2456 0.3773 (  4023 PWs)   bands (ev):

[...]

          k =-0.4253-0.2456-0.3773 (  4023 PWs)   bands (ev):

   -28.4574 -11.6500 -10.4791 -10.0084  -9.3915  -7.6229   2.2598   2.8780
     6.0292   7.0972   7.4686   8.0879

!    total energy              =    -139.91502499 Ry
     Harris-Foulkes estimate   =    -139.91502499 Ry
     estimated scf accuracy    <          1.1E-09 Ry

     The total energy is the sum of the following terms:

     one-electron contribution =     -29.13867905 Ry
     hartree contribution      =      28.57202761 Ry
     xc contribution           =     -26.45895979 Ry
     ewald contribution        =    -112.88941377 Ry

     convergence has been achieved in  12 iterations

     Forces acting on atoms (Ry/au):

     atom    1 type  3   force =    -0.00000000    0.00000000    0.00000000
     atom    2 type  2   force =    -0.00000000    0.00000000   -0.00051980
     atom    3 type  2   force =     0.00000000   -0.00000000    0.00051980
     atom    4 type  1   force =     0.00000000   -0.00000000    0.00018091
     atom    5 type  1   force =    -0.00000000    0.00000000   -0.00018091

     Total force =     0.000778     Total SCF correction =     0.000099
     SCF correction compared to forces is large: reduce conv_thr to get better values

     entering subroutine stress ...

          total   stress  (Ry/bohr**3)                   (kbar)     P=  597.19
   0.00405793  -0.00000000  -0.00000000        596.94     -0.00     -0.00
  -0.00000000   0.00405793   0.00000000         -0.00    596.94      0.00
  -0.00000000   0.00000000   0.00406303         -0.00      0.00    597.69

     Writing output data file CaOH2_ambient.save

     General routines

   This run was terminated on:  10:36:21  19Apr2014

   JOB DONE.