     Program PWSCF v.5.0.2 (svn rev. 9392) starts on 19Apr2014 at 14:17:32

     Current dimensions of program PWSCF are:
     Max number of different atomic species (ntypx) = 10
     Max number of k-points (npk) =  40000
     Max angular momentum in pseudopotentials (lmaxx) =  3
     Waiting for input...
     Reading input from standard input

     bravais-lattice index     =            4
     lattice parameter (alat)  =       6.3764  a.u.
     unit-cell volume          =     166.8192 (a.u.)^3
     number of atoms/cell      =            5
     number of atomic types    =            3
     number of electrons       =        24.00
     number of Kohn-Sham states=           12
     kinetic-energy cutoff     =     100.0000  Ry
     charge density cutoff     =     320.0000  Ry
     convergence threshold     =      1.0E-06
     mixing beta               =       0.3000
     number of iterations used =           16  local-TF  mixing
     Exchange-correlation      = PBE ( 1 4 3 4 0)
     EXX-fraction              =        0.00
     nstep                     =           50

     celldm(1)=   6.376400  celldm(2)=   0.000000  celldm(3)=   0.743000
     celldm(4)=   0.000000  celldm(5)=   0.000000  celldm(6)=   0.000000

     crystal axes: (cart. coord. in units of alat)
               a(1) = (   1.000000   0.000000   0.000000 )
               a(2) = (  -0.500000   0.866025   0.000000 )
               a(3) = (   0.000000   0.000000   0.743000 )

     reciprocal axes: (cart. coord. in units 2 pi/alat)
               b(1) = (  1.000000  0.577350 -0.000000 )
               b(2) = (  0.000000  1.154701  0.000000 )
               b(3) = (  0.000000 -0.000000  1.345895 )

     PseudoPot. # 1 for H  read from file:
     /home/ilia/espresso/pseudo/H.pbe-sp-mt.ncpp
     MD5 check sum: 7a641936b52ccecd26bd1ad87cca5aed
     Pseudo is Norm-conserving, Zval =  1.0
     Generated by old ld1 code (numerical format)
     Using radial grid of 1076 points,  0 beta functions with:

     PseudoPot. # 2 for O  read from file:
     /home/ilia/espresso/pseudo/O.pbe-sp-mt.ncpp
     MD5 check sum: 8a3d23d410d2f3ebfd0a39faacc72cbb
     Pseudo is Norm-conserving, Zval =  6.0
     Generated by old ld1 code (numerical format)
     Using radial grid of 1130 points,  1 beta functions with:
                l(1) =   1

     PseudoPot. # 3 for Ca read from file:
     /home/ilia/espresso/pseudo/Ca.pbe-sp-mt_ion2.ncpp
     MD5 check sum: 4bcd670d05521f7b178fdf0a334578ab
     Pseudo is Norm-conserving, Zval = 10.0
     Generated by old ld1 code (numerical format)
     Using radial grid of 1153 points,  1 beta functions with:
                l(1) =   1

     atomic species   valence    mass     pseudopotential
        H              1.00     1.00700     H ( 1.00)
        O              6.00    16.00000     O ( 1.00)
        Ca            10.00    40.07800     Ca( 1.00)

      6 Sym. Ops. (no inversion) found

   Cartesian axes

     site n.     atom                  positions (alat units)
         1           Ca  tau(   1) = (   0.0000000   0.0000000   0.0000000  )
         2           O   tau(   2) = (   0.0000000   0.5773503   0.2132410  )
         3           O   tau(   3) = (   0.5000000   0.2886751   0.5290160  )
         4           H   tau(   4) = (   0.0000000   0.5773503   0.5007820  )
         5           H   tau(   5) = (   0.5000000   0.2886751   0.2414750  )

     number of k points=    63
                       cart. coord. in units 2pi/alat
        k(    1) = (   0.0833333   0.1443376   0.1121579), wk =   0.0370370
        k(    2) = (   0.0833333   0.1443376   0.3364738), wk =   0.0370370
        k(    3) = (   0.0833333   0.1443376   0.5607896), wk =   0.0370370
        k(    4) = (   0.0833333   0.3367877   0.1121579), wk =   0.0370370
        k(    5) = (   0.0833333   0.3367877   0.3364738), wk =   0.0370370
        k(    6) = (   0.0833333   0.3367877   0.5607896), wk =   0.0370370
        k(    7) = (   0.0833333   0.5292377   0.1121579), wk =   0.0370370
        k(    8) = (   0.0833333   0.5292377   0.3364738), wk =   0.0370370
        k(    9) = (   0.0833333   0.5292377   0.5607896), wk =   0.0370370
        k(   10) = (   0.0833333  -0.4330127   0.1121579), wk =   0.0370370
        k(   11) = (   0.0833333  -0.4330127   0.3364738), wk =   0.0370370
        k(   12) = (   0.0833333  -0.4330127   0.5607896), wk =   0.0370370
        k(   13) = (   0.0833333  -0.2405626   0.1121579), wk =   0.0370370
        k(   14) = (   0.0833333  -0.2405626   0.3364738), wk =   0.0370370
        k(   15) = (   0.0833333  -0.2405626   0.5607896), wk =   0.0370370
        k(   16) = (   0.0833333  -0.0481125   0.1121579), wk =   0.0185185
        k(   17) = (   0.0833333  -0.0481125   0.3364738), wk =   0.0185185
        k(   18) = (   0.0833333  -0.0481125   0.5607896), wk =   0.0185185
        k(   19) = (   0.2500000   0.4330127   0.1121579), wk =   0.0370370
        k(   20) = (   0.2500000   0.4330127   0.3364738), wk =   0.0370370
        k(   21) = (   0.2500000   0.4330127   0.5607896), wk =   0.0370370
        k(   22) = (   0.2500000   0.6254628   0.1121579), wk =   0.0370370
        k(   23) = (   0.2500000   0.6254628   0.3364738), wk =   0.0370370
        k(   24) = (   0.2500000   0.6254628   0.5607896), wk =   0.0370370
        k(   25) = (   0.2500000  -0.3367877   0.1121579), wk =   0.0370370
        k(   26) = (   0.2500000  -0.3367877   0.3364738), wk =   0.0370370
        k(   27) = (   0.2500000  -0.3367877   0.5607896), wk =   0.0370370
        k(   28) = (   0.2500000  -0.1443376   0.1121579), wk =   0.0185185
        k(   29) = (   0.2500000  -0.1443376   0.3364738), wk =   0.0185185
        k(   30) = (   0.2500000  -0.1443376   0.5607896), wk =   0.0185185
        k(   31) = (   0.4166667   0.7216878   0.1121579), wk =   0.0370370
        k(   32) = (   0.4166667   0.7216878   0.3364738), wk =   0.0370370
        k(   33) = (   0.4166667   0.7216878   0.5607896), wk =   0.0370370
        k(   34) = (   0.4166667  -0.2405626   0.1121579), wk =   0.0185185
        k(   35) = (   0.4166667  -0.2405626   0.3364738), wk =   0.0185185
        k(   36) = (   0.4166667  -0.2405626   0.5607896), wk =   0.0185185
        k(   37) = (  -0.0833333  -0.3367877   0.1121579), wk =   0.0370370
        k(   38) = (  -0.0833333  -0.3367877   0.3364738), wk =   0.0370370
        k(   39) = (  -0.0833333  -0.3367877   0.5607896), wk =   0.0370370
        k(   40) = (  -0.0833333  -0.5292377   0.1121579), wk =   0.0370370
        k(   41) = (  -0.0833333  -0.5292377   0.3364738), wk =   0.0370370
        k(   42) = (  -0.0833333  -0.5292377   0.5607896), wk =   0.0370370
        k(   43) = (  -0.0833333   0.4330127   0.1121579), wk =   0.0370370
        k(   44) = (  -0.0833333   0.4330127   0.3364738), wk =   0.0370370
        k(   45) = (  -0.0833333   0.4330127   0.5607896), wk =   0.0370370
        k(   46) = (  -0.0833333   0.2405626   0.1121579), wk =   0.0370370
        k(   47) = (  -0.0833333   0.2405626   0.3364738), wk =   0.0370370
        k(   48) = (  -0.0833333   0.2405626   0.5607896), wk =   0.0370370
        k(   49) = (  -0.0833333   0.0481125   0.1121579), wk =   0.0185185
        k(   50) = (  -0.0833333   0.0481125   0.3364738), wk =   0.0185185
        k(   51) = (  -0.0833333   0.0481125   0.5607896), wk =   0.0185185
        k(   52) = (  -0.2500000  -0.6254628   0.1121579), wk =   0.0370370
        k(   53) = (  -0.2500000  -0.6254628   0.3364738), wk =   0.0370370
        k(   54) = (  -0.2500000  -0.6254628   0.5607896), wk =   0.0370370
        k(   55) = (  -0.2500000   0.3367877   0.1121579), wk =   0.0370370
        k(   56) = (  -0.2500000   0.3367877   0.3364738), wk =   0.0370370
        k(   57) = (  -0.2500000   0.3367877   0.5607896), wk =   0.0370370
        k(   58) = (  -0.2500000   0.1443376   0.1121579), wk =   0.0185185
        k(   59) = (  -0.2500000   0.1443376   0.3364738), wk =   0.0185185
        k(   60) = (  -0.2500000   0.1443376   0.5607896), wk =   0.0185185
        k(   61) = (  -0.4166667   0.2405626   0.1121579), wk =   0.0185185
        k(   62) = (  -0.4166667   0.2405626   0.3364738), wk =   0.0185185
        k(   63) = (  -0.4166667   0.2405626   0.5607896), wk =   0.0185185

     Largest allocated arrays     est. size (Mb)     dimensions
     Largest temporary arrays     est. size (Mb)     dimensions

     Initial potential from superposition of free atoms

     starting charge   21.99998, renormalised to   24.00000
     Starting wfc are   14 randomized atomic wfcs

     Self-consistent Calculation

     iteration #  1     ecut=   100.00 Ry     beta=0.30
     Davidson diagonalization with overlap
     ethr =  1.00E-02,  avg # of iterations =  2.0

     total energy              =    -139.59409855 Ry
     Harris-Foulkes estimate   =    -139.68131477 Ry
     estimated scf accuracy    <       0.48878317 Ry

[...]

     End of self-consistent calculation

          k = 0.0833 0.1443 0.1122 (  2820 PWs)   bands (ev):

   -23.7877  -7.2781  -5.1028  -4.5446  -3.9221  -2.2757   9.5748   9.7542
    10.3258  11.9509  14.5439  15.1495

[...]

          k =-0.0833-0.3368 0.1122 (  2825 PWs)   bands (ev):

[...]

!    total energy              =    -139.45592305 Ry
     Harris-Foulkes estimate   =    -139.45592336 Ry
     estimated scf accuracy    <       0.00000060 Ry

     The total energy is the sum of the following terms:

     one-electron contribution =      -0.91007595 Ry
     hartree contribution      =      19.61011364 Ry
     xc contribution           =     -27.03793759 Ry
     ewald contribution        =    -131.11802315 Ry

     convergence has been achieved in  10 iterations

     Forces acting on atoms (Ry/au):

     atom    1 type  3   force =     0.00000000    0.00000000   -0.00009174
     atom    2 type  2   force =     0.00000000    0.00000000    0.02177103
     atom    3 type  2   force =     0.00000000   -0.00000000   -0.02176956
     atom    4 type  1   force =     0.00000000    0.00000000   -0.01389403
     atom    5 type  1   force =     0.00000000   -0.00000000    0.01398431

     Total force =     0.036558     Total SCF correction =     0.000129

     entering subroutine stress ...

          total   stress  (Ry/bohr**3)                   (kbar)     P= 1764.71
   0.01299244   0.00000000   0.00000000       1911.25      0.00      0.00
   0.00000000   0.01299244  -0.00000000          0.00   1911.25     -0.00
   0.00000000   0.00000000   0.01000398          0.00      0.00   1471.64

     BFGS Geometry Optimization

     number of scf cycles    =   1
     number of bfgs steps    =   0

     enthalpy new            =    -137.7549016784 Ry

     new trust radius        =       0.1805406738 bohr
     new conv_thr            =       0.0000010000 Ry

     new unit-cell volume =    190.03200 a.u.^3 (    28.15984 Ang^3 )

CELL_PARAMETERS (alat=  6.37640000)
   1.069891123   0.000000000   0.000000000
  -0.534945561   0.926552891   0.000000000
   0.000000000  -0.000000000   0.739418454

ATOMIC_POSITIONS (crystal)
Ca       0.000000000   0.000000000  -0.000019364
O        0.333333333   0.666666667   0.291595307
O        0.666666667   0.333333333   0.707405002
[...]

[...]

ATOMIC_POSITIONS (crystal)
Ca      -0.000000000  -0.000000000  -0.000164542
O        0.333333333   0.666666667   0.291211728
O        0.666666667   0.333333333   0.707867093
H        0.333333333   0.666666667   0.692111117
H        0.666666667   0.333333333   0.306974604

     Writing output data file CaOH2_ambient.save
     NEW-OLD atomic charge density approx. for the potential
     NEW k-points:
        k(    1) = (   0.0807228   0.1398159   0.1159766), wk =   0.0370370
        k(    2) = (   0.0807228   0.1398159   0.3479297), wk =   0.0370370
        k(    3) = (   0.0807228   0.1398159   0.5798829), wk =   0.0370370
        k(    4) = (   0.0807228   0.3262372   0.1159766), wk =   0.0370370
        k(    5) = (   0.0807228   0.3262372   0.3479297), wk =   0.0370370
        k(    6) = (   0.0807228   0.3262372   0.5798829), wk =   0.0370370
        k(    7) = (   0.0807228   0.5126584   0.1159766), wk =   0.0370370
        k(    8) = (   0.0807228   0.5126584   0.3479297), wk =   0.0370370
        k(    9) = (   0.0807228   0.5126584   0.5798829), wk =   0.0370370
        k(   10) = (   0.0807228  -0.4194478   0.1159766), wk =   0.0370370
        k(   11) = (   0.0807228  -0.4194478   0.3479297), wk =   0.0370370
        k(   12) = (   0.0807228  -0.4194478   0.5798829), wk =   0.0370370
        k(   13) = (   0.0807228  -0.2330266   0.1159766), wk =   0.0370370
        k(   14) = (   0.0807228  -0.2330266   0.3479297), wk =   0.0370370
        k(   15) = (   0.0807228  -0.2330266   0.5798829), wk =   0.0370370
        k(   16) = (   0.0807228  -0.0466053   0.1159766), wk =   0.0185185
        k(   17) = (   0.0807228  -0.0466053   0.3479297), wk =   0.0185185
        k(   18) = (   0.0807228  -0.0466053   0.5798829), wk =   0.0185185
        k(   19) = (   0.2421683   0.4194478   0.1159766), wk =   0.0370370
        k(   20) = (   0.2421683   0.4194478   0.3479297), wk =   0.0370370
        k(   21) = (   0.2421683   0.4194478   0.5798829), wk =   0.0370370
        k(   22) = (   0.2421683   0.6058691   0.1159766), wk =   0.0370370
        k(   23) = (   0.2421683   0.6058691   0.3479297), wk =   0.0370370
        k(   24) = (   0.2421683   0.6058691   0.5798829), wk =   0.0370370
        k(   25) = (   0.2421683  -0.3262372   0.1159766), wk =   0.0370370
        k(   26) = (   0.2421683  -0.3262372   0.3479297), wk =   0.0370370
        k(   27) = (   0.2421683  -0.3262372   0.5798829), wk =   0.0370370
        k(   28) = (   0.2421683  -0.1398159   0.1159766), wk =   0.0185185
        k(   29) = (   0.2421683  -0.1398159   0.3479297), wk =   0.0185185
        k(   30) = (   0.2421683  -0.1398159   0.5798829), wk =   0.0185185
        k(   31) = (   0.4036138   0.6990797   0.1159766), wk =   0.0370370
        k(   32) = (   0.4036138   0.6990797   0.3479297), wk =   0.0370370
        k(   33) = (   0.4036138   0.6990797   0.5798829), wk =   0.0370370
        k(   34) = (   0.4036138  -0.2330266   0.1159766), wk =   0.0185185
        k(   35) = (   0.4036138  -0.2330266   0.3479297), wk =   0.0185185
        k(   36) = (   0.4036138  -0.2330266   0.5798829), wk =   0.0185185
        k(   37) = (  -0.0807228  -0.3262372   0.1159766), wk =   0.0370370
        k(   38) = (  -0.0807228  -0.3262372   0.3479297), wk =   0.0370370
        k(   39) = (  -0.0807228  -0.3262372   0.5798829), wk =   0.0370370
        k(   40) = (  -0.0807228  -0.5126584   0.1159766), wk =   0.0370370
        k(   41) = (  -0.0807228  -0.5126584   0.3479297), wk =   0.0370370
        k(   42) = (  -0.0807228  -0.5126584   0.5798829), wk =   0.0370370
        k(   43) = (  -0.0807228   0.4194478   0.1159766), wk =   0.0370370
        k(   44) = (  -0.0807228   0.4194478   0.3479297), wk =   0.0370370
        k(   45) = (  -0.0807228   0.4194478   0.5798829), wk =   0.0370370
        k(   46) = (  -0.0807228   0.2330266   0.1159766), wk =   0.0370370
        k(   47) = (  -0.0807228   0.2330266   0.3479297), wk =   0.0370370
        k(   48) = (  -0.0807228   0.2330266   0.5798829), wk =   0.0370370
        k(   49) = (  -0.0807228   0.0466053   0.1159766), wk =   0.0185185
        k(   50) = (  -0.0807228   0.0466053   0.3479297), wk =   0.0185185
        k(   51) = (  -0.0807228   0.0466053   0.5798829), wk =   0.0185185
        k(   52) = (  -0.2421683  -0.6058691   0.1159766), wk =   0.0370370
        k(   53) = (  -0.2421683  -0.6058691   0.3479297), wk =   0.0370370
        k(   54) = (  -0.2421683  -0.6058691   0.5798829), wk =   0.0370370
        k(   55) = (  -0.2421683   0.3262372   0.1159766), wk =   0.0370370
        k(   56) = (  -0.2421683   0.3262372   0.3479297), wk =   0.0370370
        k(   57) = (  -0.2421683   0.3262372   0.5798829), wk =   0.0370370
        k(   58) = (  -0.2421683   0.1398159   0.1159766), wk =   0.0185185
        k(   59) = (  -0.2421683   0.1398159   0.3479297), wk =   0.0185185
        k(   60) = (  -0.2421683   0.1398159   0.5798829), wk =   0.0185185
        k(   61) = (  -0.4036138   0.2330266   0.1159766), wk =   0.0185185
        k(   62) = (  -0.4036138   0.2330266   0.3479297), wk =   0.0185185
        k(   63) = (  -0.4036138   0.2330266   0.5798829), wk =   0.0185185
     extrapolated charge   23.96943, renormalised to   24.00000

[...]

     Total force =     0.000128     Total SCF correction =     0.000062
     SCF correction compared to forces is large: reduce conv_thr to get better values

[...]

     bfgs converged in   9 scf cycles and   7 bfgs steps
     (criteria: energy < 0.10E-03, force < 0.10E-02, cell < 0.50E+00)

     End of BFGS Geometry Optimization

     Final enthalpy =    -137.7698920207 Ry
Begin final coordinates
     new unit-cell volume =    171.92981 a.u.^3 (    25.47737 Ang^3 )

CELL_PARAMETERS (alat=  6.37640000)
   1.032339873   0.000000000   0.000000000
  -0.516169937   0.894032556   0.000000000
  -0.000000000  -0.000000000   0.718535926

ATOMIC_POSITIONS (crystal)
Ca      -0.000000000  -0.000000000  -0.000164542
O        0.333333333   0.666666667   0.291211728
O        0.666666667   0.333333333   0.707867093
H        0.333333333   0.666666667   0.692111117
H        0.666666667   0.333333333   0.306974604
End final coordinates

     A final scf calculation at the relaxed structure.
     The G-vectors are recalculated for the final unit cell
     Results may differ from those at the preceding step.

     bravais-lattice index     =            4
     lattice parameter (alat)  =       6.3764  a.u.
     unit-cell volume          =     171.9298 (a.u.)^3
     number of atoms/cell      =            5
     number of atomic types    =            3
     number of electrons       =        24.00
     number of Kohn-Sham states=           12
     kinetic-energy cutoff     =     100.0000  Ry
     charge density cutoff     =     320.0000  Ry
     convergence threshold     =      2.0E-08
     mixing beta               =       0.3000
     number of iterations used =           16  local-TF  mixing
     Exchange-correlation      = PBE ( 1 4 3 4 0)
     EXX-fraction              =        0.00

     celldm(1)=   6.376400  celldm(2)=   0.000000  celldm(3)=   0.743000
     celldm(4)=   0.000000  celldm(5)=   0.000000  celldm(6)=   0.000000

     crystal axes: (cart. coord. in units of alat)
               a(1) = (   1.032340   0.000000   0.000000 )
               a(2) = (  -0.516170   0.894033   0.000000 )
               a(3) = (  -0.000000  -0.000000   0.718536 )

     reciprocal axes: (cart. coord. in units 2 pi/alat)
               b(1) = (  0.968673  0.559264  0.000000 )
               b(2) = ( -0.000000  1.118528  0.000000 )
               b(3) = ( -0.000000 -0.000000  1.391719 )

     PseudoPot. # 1 for H  read from file:
     /home/ilia/espresso/pseudo/H.pbe-sp-mt.ncpp
     MD5 check sum: 7a641936b52ccecd26bd1ad87cca5aed
     Pseudo is Norm-conserving, Zval =  1.0
     Generated by old ld1 code (numerical format)
     Using radial grid of 1076 points,  0 beta functions with:

     PseudoPot. # 2 for O  read from file:
     /home/ilia/espresso/pseudo/O.pbe-sp-mt.ncpp
     MD5 check sum: 8a3d23d410d2f3ebfd0a39faacc72cbb
     Pseudo is Norm-conserving, Zval =  6.0
     Generated by old ld1 code (numerical format)
     Using radial grid of 1130 points,  1 beta functions with:
                l(1) =   1

     PseudoPot. # 3 for Ca read from file:
     /home/ilia/espresso/pseudo/Ca.pbe-sp-mt_ion2.ncpp
     MD5 check sum: 4bcd670d05521f7b178fdf0a334578ab
     Pseudo is Norm-conserving, Zval = 10.0
     Generated by old ld1 code (numerical format)
     Using radial grid of 1153 points,  1 beta functions with:
                l(1) =   1

     atomic species   valence    mass     pseudopotential
        H              1.00     1.00700     H ( 1.00)
        O              6.00    16.00000     O ( 1.00)
        Ca            10.00    40.07800     Ca( 1.00)

      6 Sym. Ops. (no inversion) found

   Cartesian axes

     site n.     atom                  positions (alat units)
         1           Ca  tau(   1) = (   0.0000000  -0.0000000  -0.0001182  )
         2           O   tau(   2) = (  -0.0000000   0.5960217   0.2092461  )
         3           O   tau(   3) = (   0.5161699   0.2980109   0.5086279  )
         4           H   tau(   4) = (  -0.0000000   0.5960217   0.4973067  )
         5           H   tau(   5) = (   0.5161699   0.2980109   0.2205723  )

     number of k points=    63
                       cart. coord. in units 2pi/alat
        k(    1) = (   0.0807228   0.1398159   0.1159766), wk =   0.0370370
        k(    2) = (   0.0807228   0.1398159   0.3479297), wk =   0.0370370
        k(    3) = (   0.0807228   0.1398159   0.5798829), wk =   0.0370370
        k(    4) = (   0.0807228   0.3262372   0.1159766), wk =   0.0370370
        k(    5) = (   0.0807228   0.3262372   0.3479297), wk =   0.0370370
        k(    6) = (   0.0807228   0.3262372   0.5798829), wk =   0.0370370
        k(    7) = (   0.0807228   0.5126584   0.1159766), wk =   0.0370370
        k(    8) = (   0.0807228   0.5126584   0.3479297), wk =   0.0370370
        k(    9) = (   0.0807228   0.5126584   0.5798829), wk =   0.0370370
        k(   10) = (   0.0807228  -0.4194478   0.1159766), wk =   0.0370370
        k(   11) = (   0.0807228  -0.4194478   0.3479297), wk =   0.0370370
        k(   12) = (   0.0807228  -0.4194478   0.5798829), wk =   0.0370370
        k(   13) = (   0.0807228  -0.2330266   0.1159766), wk =   0.0370370
        k(   14) = (   0.0807228  -0.2330266   0.3479297), wk =   0.0370370
        k(   15) = (   0.0807228  -0.2330266   0.5798829), wk =   0.0370370
        k(   16) = (   0.0807228  -0.0466053   0.1159766), wk =   0.0185185
        k(   17) = (   0.0807228  -0.0466053   0.3479297), wk =   0.0185185
        k(   18) = (   0.0807228  -0.0466053   0.5798829), wk =   0.0185185
        k(   19) = (   0.2421683   0.4194478   0.1159766), wk =   0.0370370
        k(   20) = (   0.2421683   0.4194478   0.3479297), wk =   0.0370370
        k(   21) = (   0.2421683   0.4194478   0.5798829), wk =   0.0370370
        k(   22) = (   0.2421683   0.6058691   0.1159766), wk =   0.0370370
        k(   23) = (   0.2421683   0.6058691   0.3479297), wk =   0.0370370
        k(   24) = (   0.2421683   0.6058691   0.5798829), wk =   0.0370370
        k(   25) = (   0.2421683  -0.3262372   0.1159766), wk =   0.0370370
        k(   26) = (   0.2421683  -0.3262372   0.3479297), wk =   0.0370370
        k(   27) = (   0.2421683  -0.3262372   0.5798829), wk =   0.0370370
        k(   28) = (   0.2421683  -0.1398159   0.1159766), wk =   0.0185185
        k(   29) = (   0.2421683  -0.1398159   0.3479297), wk =   0.0185185
        k(   30) = (   0.2421683  -0.1398159   0.5798829), wk =   0.0185185
        k(   31) = (   0.4036138   0.6990797   0.1159766), wk =   0.0370370
        k(   32) = (   0.4036138   0.6990797   0.3479297), wk =   0.0370370
        k(   33) = (   0.4036138   0.6990797   0.5798829), wk =   0.0370370
        k(   34) = (   0.4036138  -0.2330266   0.1159766), wk =   0.0185185
        k(   35) = (   0.4036138  -0.2330266   0.3479297), wk =   0.0185185
        k(   36) = (   0.4036138  -0.2330266   0.5798829), wk =   0.0185185
        k(   37) = (  -0.0807228  -0.3262372   0.1159766), wk =   0.0370370
        k(   38) = (  -0.0807228  -0.3262372   0.3479297), wk =   0.0370370
        k(   39) = (  -0.0807228  -0.3262372   0.5798829), wk =   0.0370370
        k(   40) = (  -0.0807228  -0.5126584   0.1159766), wk =   0.0370370
        k(   41) = (  -0.0807228  -0.5126584   0.3479297), wk =   0.0370370
        k(   42) = (  -0.0807228  -0.5126584   0.5798829), wk =   0.0370370
        k(   43) = (  -0.0807228   0.4194478   0.1159766), wk =   0.0370370
        k(   44) = (  -0.0807228   0.4194478   0.3479297), wk =   0.0370370
        k(   45) = (  -0.0807228   0.4194478   0.5798829), wk =   0.0370370
        k(   46) = (  -0.0807228   0.2330266   0.1159766), wk =   0.0370370
        k(   47) = (  -0.0807228   0.2330266   0.3479297), wk =   0.0370370
        k(   48) = (  -0.0807228   0.2330266   0.5798829), wk =   0.0370370
        k(   49) = (  -0.0807228   0.0466053   0.1159766), wk =   0.0185185
        k(   50) = (  -0.0807228   0.0466053   0.3479297), wk =   0.0185185
        k(   51) = (  -0.0807228   0.0466053   0.5798829), wk =   0.0185185
        k(   52) = (  -0.2421683  -0.6058691   0.1159766), wk =   0.0370370
        k(   53) = (  -0.2421683  -0.6058691   0.3479297), wk =   0.0370370
        k(   54) = (  -0.2421683  -0.6058691   0.5798829), wk =   0.0370370
        k(   55) = (  -0.2421683   0.3262372   0.1159766), wk =   0.0370370
        k(   56) = (  -0.2421683   0.3262372   0.3479297), wk =   0.0370370
        k(   57) = (  -0.2421683   0.3262372   0.5798829), wk =   0.0370370
        k(   58) = (  -0.2421683   0.1398159   0.1159766), wk =   0.0185185
        k(   59) = (  -0.2421683   0.1398159   0.3479297), wk =   0.0185185
        k(   60) = (  -0.2421683   0.1398159   0.5798829), wk =   0.0185185
        k(   61) = (  -0.4036138   0.2330266   0.1159766), wk =   0.0185185
        k(   62) = (  -0.4036138   0.2330266   0.3479297), wk =   0.0185185
        k(   63) = (  -0.4036138   0.2330266   0.5798829), wk =   0.0185185

     Largest allocated arrays     est. size (Mb)     dimensions
     Largest temporary arrays     est. size (Mb)     dimensions

     Initial potential from superposition of free atoms

     starting charge   21.99998, renormalised to   24.00000
     Starting wfc are   14 randomized atomic wfcs

     Writing output data file CaOH2_ambient.save

     Self-consistent Calculation

[...]

     total energy              =    -139.52356530 Ry
     Harris-Foulkes estimate   =    -139.52356533 Ry
     estimated scf accuracy    <       0.00000006 Ry

     iteration # 11     ecut=   100.00 Ry     beta=0.30
     Davidson diagonalization with overlap
     ethr =  8.89E-11,  avg # of iterations =  3.0

     End of self-consistent calculation

[...]

          k = 0.4036-0.2330 0.5799 (  2902 PWs)   bands (ev):

[...]

          k =-0.4036 0.2330 0.5799 (  2902 PWs)   bands (ev):

   -23.9631  -8.1466  -6.7599  -5.5593  -3.7803  -2.3778   5.0024   5.3619
    10.5128  12.5510  13.6766  13.7129

!    total energy              =    -139.52356531 Ry
     Harris-Foulkes estimate   =    -139.52356531 Ry
     estimated scf accuracy    <          2.0E-10 Ry

     The total energy is the sum of the following terms:

     one-electron contribution =      -2.55165050 Ry
     hartree contribution      =      19.82302989 Ry
     xc contribution           =     -26.93656931 Ry
     ewald contribution        =    -129.85837540 Ry

     convergence has been achieved in  11 iterations

     Forces acting on atoms (Ry/au):

     atom    1 type  3   force =    -0.00000000   -0.00000000   -0.00003690
     atom    2 type  2   force =    -0.00000000   -0.00000000    0.00007547
     atom    3 type  2   force =     0.00000000    0.00000000   -0.00005794
     atom    4 type  1   force =    -0.00000000   -0.00000000    0.00004508
     atom    5 type  1   force =     0.00000000    0.00000000   -0.00002571

     Total force =     0.000114     Total SCF correction =     0.000025
     SCF correction compared to forces is large: reduce conv_thr to get better values

     entering subroutine stress ...

          total   stress  (Ry/bohr**3)                   (kbar)     P= 1504.78
   0.01024776  -0.00000000  -0.00000000       1507.50     -0.00     -0.00
  -0.00000000   0.01024776  -0.00000000         -0.00   1507.50     -0.00
  -0.00000000  -0.00000000   0.01019233         -0.00     -0.00   1499.34

     Writing output data file CaOH2_ambient.save

     General routines

   This run was terminated on:  14:40:21  19Apr2014

   JOB DONE.