     Program PWSCF v.5.0.2 (svn rev. 9392) starts on 19Apr2014 at  0: 5:29

     Current dimensions of program PWSCF are:
     Max number of different atomic species (ntypx) = 10
     Max number of k-points (npk) =  40000
     Max angular momentum in pseudopotentials (lmaxx) =  3
     Waiting for input...
     Reading input from standard input

     bravais-lattice index     =            4
     lattice parameter (alat)  =       6.7864  a.u.
     unit-cell volume          =     356.1278 (a.u.)^3
     number of atoms/cell      =            5
     number of atomic types    =            3
     number of electrons       =        24.00
     number of Kohn-Sham states=           12
     kinetic-energy cutoff     =     100.0000  Ry
     charge density cutoff     =     320.0000  Ry
     convergence threshold     =      1.0E-06
     mixing beta               =       0.3000
     number of iterations used =           16  local-TF  mixing
     Exchange-correlation      = PBE ( 1 4 3 4 0)
     EXX-fraction              =        0.00
     nstep                     =           50

     celldm(1)=   6.786400  celldm(2)=   0.000000  celldm(3)=   1.315700
     celldm(4)=   0.000000  celldm(5)=   0.000000  celldm(6)=   0.000000

     crystal axes: (cart. coord. in units of alat)
               a(1) = (   1.000000   0.000000   0.000000 )
               a(2) = (  -0.500000   0.866025   0.000000 )
               a(3) = (   0.000000   0.000000   1.315700 )

     reciprocal axes: (cart. coord. in units 2 pi/alat)
               b(1) = (  1.000000  0.577350 -0.000000 )
               b(2) = (  0.000000  1.154701  0.000000 )
               b(3) = (  0.000000 -0.000000  0.760052 )

     PseudoPot. # 1 for H  read from file:
     /home/ilia/espresso/pseudo/H.pbe-sp-mt.ncpp
     MD5 check sum: 7a641936b52ccecd26bd1ad87cca5aed
     Pseudo is Norm-conserving, Zval =  1.0
     Generated by old ld1 code (numerical format)
     Using radial grid of 1076 points,  0 beta functions with:

     PseudoPot. # 2 for O  read from file:
     /home/ilia/espresso/pseudo/O.pbe-sp-mt.ncpp
     MD5 check sum: 8a3d23d410d2f3ebfd0a39faacc72cbb
     Pseudo is Norm-conserving, Zval =  6.0
     Generated by old ld1 code (numerical format)
     Using radial grid of 1130 points,  1 beta functions with:
                l(1) =   1

     PseudoPot. # 3 for Ca read from file:
     /home/ilia/espresso/pseudo/Ca.pbe-sp-mt_ion2.ncpp
     MD5 check sum: 4bcd670d05521f7b178fdf0a334578ab
     Pseudo is Norm-conserving, Zval = 10.0
     Generated by old ld1 code (numerical format)
     Using radial grid of 1153 points,  1 beta functions with:
                l(1) =   1

     atomic species   valence    mass     pseudopotential
        H              1.00     1.00700     H ( 1.00)
        O              6.00    16.00000     O ( 1.00)
        Ca            10.00    40.07800     Ca( 1.00)

     12 Sym. Ops., with inversion, found

   Cartesian axes

     site n.     atom                  positions (alat units)
         1           Ca  tau(   1) = (   0.0000000   0.0000000   0.0000000  )
         2           O   tau(   2) = (   0.0000000   0.5773503   0.3065581  )
         3           O   tau(   3) = (   0.5000000   0.2886751   1.0091419  )
         4           H   tau(   4) = (   0.0000000   0.5773503   0.5710138  )
         5           H   tau(   5) = (   0.5000000   0.2886751   0.7446862  )

     number of k points=    63
                       cart. coord. in units 2pi/alat
        k(    1) = (   0.0833333   0.1443376   0.0633376), wk =   0.0370370
        k(    2) = (   0.0833333   0.1443376   0.1900129), wk =   0.0370370
        k(    3) = (   0.0833333   0.1443376   0.3166882), wk =   0.0370370
        k(    4) = (   0.0833333   0.3367877   0.0633376), wk =   0.0370370
        k(    5) = (   0.0833333   0.3367877   0.1900129), wk =   0.0370370
        k(    6) = (   0.0833333   0.3367877   0.3166882), wk =   0.0370370
        k(    7) = (   0.0833333   0.5292377   0.0633376), wk =   0.0370370
        k(    8) = (   0.0833333   0.5292377   0.1900129), wk =   0.0370370
        k(    9) = (   0.0833333   0.5292377   0.3166882), wk =   0.0370370
        k(   10) = (   0.0833333  -0.4330127   0.0633376), wk =   0.0370370
        k(   11) = (   0.0833333  -0.4330127   0.1900129), wk =   0.0370370
        k(   12) = (   0.0833333  -0.4330127   0.3166882), wk =   0.0370370
        k(   13) = (   0.0833333  -0.2405626   0.0633376), wk =   0.0370370
        k(   14) = (   0.0833333  -0.2405626   0.1900129), wk =   0.0370370
        k(   15) = (   0.0833333  -0.2405626   0.3166882), wk =   0.0370370
        k(   16) = (   0.0833333  -0.0481125   0.0633376), wk =   0.0185185
        k(   17) = (   0.0833333  -0.0481125   0.1900129), wk =   0.0185185
        k(   18) = (   0.0833333  -0.0481125   0.3166882), wk =   0.0185185
        k(   19) = (   0.2500000   0.4330127   0.0633376), wk =   0.0370370
        k(   20) = (   0.2500000   0.4330127   0.1900129), wk =   0.0370370
        k(   21) = (   0.2500000   0.4330127   0.3166882), wk =   0.0370370
        k(   22) = (   0.2500000   0.6254628   0.0633376), wk =   0.0370370
        k(   23) = (   0.2500000   0.6254628   0.1900129), wk =   0.0370370
        k(   24) = (   0.2500000   0.6254628   0.3166882), wk =   0.0370370
        k(   25) = (   0.2500000  -0.3367877   0.0633376), wk =   0.0370370
        k(   26) = (   0.2500000  -0.3367877   0.1900129), wk =   0.0370370
        k(   27) = (   0.2500000  -0.3367877   0.3166882), wk =   0.0370370
        k(   28) = (   0.2500000  -0.1443376   0.0633376), wk =   0.0185185
        k(   29) = (   0.2500000  -0.1443376   0.1900129), wk =   0.0185185
        k(   30) = (   0.2500000  -0.1443376   0.3166882), wk =   0.0185185
        k(   31) = (   0.4166667   0.7216878   0.0633376), wk =   0.0370370
        k(   32) = (   0.4166667   0.7216878   0.1900129), wk =   0.0370370
        k(   33) = (   0.4166667   0.7216878   0.3166882), wk =   0.0370370
        k(   34) = (   0.4166667  -0.2405626   0.0633376), wk =   0.0185185
        k(   35) = (   0.4166667  -0.2405626   0.1900129), wk =   0.0185185
        k(   36) = (   0.4166667  -0.2405626   0.3166882), wk =   0.0185185
        k(   37) = (  -0.0833333   0.3367877  -0.0633376), wk =   0.0370370
        k(   38) = (  -0.0833333   0.3367877  -0.1900129), wk =   0.0370370
        k(   39) = (  -0.0833333   0.3367877  -0.3166882), wk =   0.0370370
        k(   40) = (  -0.0833333   0.5292377  -0.0633376), wk =   0.0370370
        k(   41) = (  -0.0833333   0.5292377  -0.1900129), wk =   0.0370370
        k(   42) = (  -0.0833333   0.5292377  -0.3166882), wk =   0.0370370
        k(   43) = (  -0.0833333  -0.4330127  -0.0633376), wk =   0.0370370
        k(   44) = (  -0.0833333  -0.4330127  -0.1900129), wk =   0.0370370
        k(   45) = (  -0.0833333  -0.4330127  -0.3166882), wk =   0.0370370
        k(   46) = (  -0.0833333  -0.2405626  -0.0633376), wk =   0.0370370
        k(   47) = (  -0.0833333  -0.2405626  -0.1900129), wk =   0.0370370
        k(   48) = (  -0.0833333  -0.2405626  -0.3166882), wk =   0.0370370
        k(   49) = (  -0.0833333  -0.0481125  -0.0633376), wk =   0.0185185
        k(   50) = (  -0.0833333  -0.0481125  -0.1900129), wk =   0.0185185
        k(   51) = (  -0.0833333  -0.0481125  -0.3166882), wk =   0.0185185
        k(   52) = (  -0.2500000   0.6254628  -0.0633376), wk =   0.0370370
        k(   53) = (  -0.2500000   0.6254628  -0.1900129), wk =   0.0370370
        k(   54) = (  -0.2500000   0.6254628  -0.3166882), wk =   0.0370370
        k(   55) = (  -0.2500000  -0.3367877  -0.0633376), wk =   0.0370370
        k(   56) = (  -0.2500000  -0.3367877  -0.1900129), wk =   0.0370370
        k(   57) = (  -0.2500000  -0.3367877  -0.3166882), wk =   0.0370370
        k(   58) = (  -0.2500000  -0.1443376  -0.0633376), wk =   0.0185185
        k(   59) = (  -0.2500000  -0.1443376  -0.1900129), wk =   0.0185185
        k(   60) = (  -0.2500000  -0.1443376  -0.3166882), wk =   0.0185185
        k(   61) = (  -0.4166667  -0.2405626  -0.0633376), wk =   0.0185185
        k(   62) = (  -0.4166667  -0.2405626  -0.1900129), wk =   0.0185185
        k(   63) = (  -0.4166667  -0.2405626  -0.3166882), wk =   0.0185185

     Largest allocated arrays     est. size (Mb)     dimensions
     Largest temporary arrays     est. size (Mb)     dimensions

     Initial potential from superposition of free atoms

     starting charge   21.99998, renormalised to   24.00000
     Starting wfc are   14 randomized atomic wfcs

     Self-consistent Calculation

     iteration #  1     ecut=   100.00 Ry     beta=0.30
     Davidson diagonalization with overlap
     ethr =  1.00E-02,  avg # of iterations =  2.0

     total energy              =    -140.22488747 Ry
     Harris-Foulkes estimate   =    -140.30918376 Ry
     estimated scf accuracy    <       0.46285438 Ry

[...]

     End of self-consistent calculation

          k = 0.0833 0.1443 0.0633 (  6010 PWs)   bands (ev):

   -33.8063 -15.6452 -15.3588 -15.1562 -13.7619 -12.9561  -1.9587  -0.2106
     2.3608   2.4292   2.9928   3.3599

[...]

          k =-0.0833 0.3368-0.0633 (  6015 PWs)   bands (ev):

[...]

!    total energy              =    -140.09798162 Ry
     Harris-Foulkes estimate   =    -140.09798166 Ry
     estimated scf accuracy    <       0.00000008 Ry

     The total energy is the sum of the following terms:

     one-electron contribution =     -61.80244438 Ry
     hartree contribution      =      40.54927104 Ry
     xc contribution           =     -26.03034424 Ry
     ewald contribution        =     -92.81446403 Ry

     convergence has been achieved in  11 iterations

     Forces acting on atoms (Ry/au):

     atom    1 type  3   force =     0.00000000   -0.00000000    0.00000000
     atom    2 type  2   force =     0.00000000    0.00000000   -0.03558402
     atom    3 type  2   force =     0.00000000   -0.00000000    0.03558402
     atom    4 type  1   force =     0.00000000    0.00000000    0.05742705
     atom    5 type  1   force =     0.00000000   -0.00000000   -0.05742705

     Total force =     0.095541     Total SCF correction =     0.000059

     entering subroutine stress ...

          total   stress  (Ry/bohr**3)                   (kbar)     P=   89.54
   0.00042420   0.00000000   0.00000000         62.40      0.00      0.00
   0.00000000   0.00042420   0.00000000          0.00     62.40      0.00
   0.00000000   0.00000000   0.00097774          0.00      0.00    143.83

     BFGS Geometry Optimization

     number of scf cycles    =   1
     number of bfgs steps    =   0

     enthalpy new            =    -140.0979816173 Ry

     new trust radius        =       0.0922562316 bohr
     new conv_thr            =       0.0000010000 Ry

     new unit-cell volume =    372.61184 a.u.^3 (    55.21538 Ang^3 )

CELL_PARAMETERS (alat=  6.78640000)
   1.010604878   0.000000000   0.000000000
  -0.505302439   0.875209497   0.000000000
   0.000000000   0.000000000   1.347860268

ATOMIC_POSITIONS (crystal)
Ca      -0.000000000  -0.000000000   0.000000000
O        0.333333333   0.666666667   0.229014722
O        0.666666667   0.333333333   0.770985278
[...]

     CASE: enthalpy_new < enthalpy_old

     new trust radius        =       0.0010737619 bohr
     new conv_thr            =       0.0000000100 Ry

     new unit-cell volume =    387.75122 a.u.^3 (    57.45880 Ang^3 )

[...]

ATOMIC_POSITIONS (crystal)
Ca      -0.000000000  -0.000000000  -0.000000000
O        0.333333333   0.666666667   0.233499919
O        0.666666667   0.333333333   0.766500081
H        0.333333333   0.666666667   0.433082001
H        0.666666667   0.333333333   0.566917999

     Writing output data file CaOH2_ambient.save
     NEW-OLD atomic charge density approx. for the potential
     NEW k-points:
        k(    1) = (   0.0815721   0.1412869   0.0607113), wk =   0.0370370
        k(    2) = (   0.0815721   0.1412869   0.1821338), wk =   0.0370370
        k(    3) = (   0.0815721   0.1412869   0.3035563), wk =   0.0370370
        k(    4) = (   0.0815721   0.3296695   0.0607113), wk =   0.0370370
        k(    5) = (   0.0815721   0.3296695   0.1821338), wk =   0.0370370
        k(    6) = (   0.0815721   0.3296695   0.3035563), wk =   0.0370370
        k(    7) = (   0.0815721   0.5180521   0.0607113), wk =   0.0370370
        k(    8) = (   0.0815721   0.5180521   0.1821338), wk =   0.0370370
        k(    9) = (   0.0815721   0.5180521   0.3035563), wk =   0.0370370
        k(   10) = (   0.0815721  -0.4238608   0.0607113), wk =   0.0370370
        k(   11) = (   0.0815721  -0.4238608   0.1821338), wk =   0.0370370
        k(   12) = (   0.0815721  -0.4238608   0.3035563), wk =   0.0370370
        k(   13) = (   0.0815721  -0.2354782   0.0607113), wk =   0.0370370
        k(   14) = (   0.0815721  -0.2354782   0.1821338), wk =   0.0370370
        k(   15) = (   0.0815721  -0.2354782   0.3035563), wk =   0.0370370
        k(   16) = (   0.0815721  -0.0470956   0.0607113), wk =   0.0185185
        k(   17) = (   0.0815721  -0.0470956   0.1821338), wk =   0.0185185
        k(   18) = (   0.0815721  -0.0470956   0.3035563), wk =   0.0185185
        k(   19) = (   0.2447162   0.4238608   0.0607113), wk =   0.0370370
        k(   20) = (   0.2447162   0.4238608   0.1821338), wk =   0.0370370
        k(   21) = (   0.2447162   0.4238608   0.3035563), wk =   0.0370370
        k(   22) = (   0.2447162   0.6122434   0.0607113), wk =   0.0370370
        k(   23) = (   0.2447162   0.6122434   0.1821338), wk =   0.0370370
        k(   24) = (   0.2447162   0.6122434   0.3035563), wk =   0.0370370
        k(   25) = (   0.2447162  -0.3296695   0.0607113), wk =   0.0370370
        k(   26) = (   0.2447162  -0.3296695   0.1821338), wk =   0.0370370
        k(   27) = (   0.2447162  -0.3296695   0.3035563), wk =   0.0370370
        k(   28) = (   0.2447162  -0.1412869   0.0607113), wk =   0.0185185
        k(   29) = (   0.2447162  -0.1412869   0.1821338), wk =   0.0185185
        k(   30) = (   0.2447162  -0.1412869   0.3035563), wk =   0.0185185
        k(   31) = (   0.4078603   0.7064347   0.0607113), wk =   0.0370370
        k(   32) = (   0.4078603   0.7064347   0.1821338), wk =   0.0370370
        k(   33) = (   0.4078603   0.7064347   0.3035563), wk =   0.0370370
        k(   34) = (   0.4078603  -0.2354782   0.0607113), wk =   0.0185185
        k(   35) = (   0.4078603  -0.2354782   0.1821338), wk =   0.0185185
        k(   36) = (   0.4078603  -0.2354782   0.3035563), wk =   0.0185185
        k(   37) = (  -0.0815721   0.3296695  -0.0607113), wk =   0.0370370
        k(   38) = (  -0.0815721   0.3296695  -0.1821338), wk =   0.0370370
        k(   39) = (  -0.0815721   0.3296695  -0.3035563), wk =   0.0370370
        k(   40) = (  -0.0815721   0.5180521  -0.0607113), wk =   0.0370370
        k(   41) = (  -0.0815721   0.5180521  -0.1821338), wk =   0.0370370
        k(   42) = (  -0.0815721   0.5180521  -0.3035563), wk =   0.0370370
        k(   43) = (  -0.0815721  -0.4238608  -0.0607113), wk =   0.0370370
        k(   44) = (  -0.0815721  -0.4238608  -0.1821338), wk =   0.0370370
        k(   45) = (  -0.0815721  -0.4238608  -0.3035563), wk =   0.0370370
        k(   46) = (  -0.0815721  -0.2354782  -0.0607113), wk =   0.0370370
        k(   47) = (  -0.0815721  -0.2354782  -0.1821338), wk =   0.0370370
        k(   48) = (  -0.0815721  -0.2354782  -0.3035563), wk =   0.0370370
        k(   49) = (  -0.0815721  -0.0470956  -0.0607113), wk =   0.0185185
        k(   50) = (  -0.0815721  -0.0470956  -0.1821338), wk =   0.0185185
        k(   51) = (  -0.0815721  -0.0470956  -0.3035563), wk =   0.0185185
        k(   52) = (  -0.2447162   0.6122434  -0.0607113), wk =   0.0370370
        k(   53) = (  -0.2447162   0.6122434  -0.1821338), wk =   0.0370370
        k(   54) = (  -0.2447162   0.6122434  -0.3035563), wk =   0.0370370
        k(   55) = (  -0.2447162  -0.3296695  -0.0607113), wk =   0.0370370
        k(   56) = (  -0.2447162  -0.3296695  -0.1821338), wk =   0.0370370
        k(   57) = (  -0.2447162  -0.3296695  -0.3035563), wk =   0.0370370
        k(   58) = (  -0.2447162  -0.1412869  -0.0607113), wk =   0.0185185
        k(   59) = (  -0.2447162  -0.1412869  -0.1821338), wk =   0.0185185
        k(   60) = (  -0.2447162  -0.1412869  -0.3035563), wk =   0.0185185
        k(   61) = (  -0.4078603  -0.2354782  -0.0607113), wk =   0.0185185
        k(   62) = (  -0.4078603  -0.2354782  -0.1821338), wk =   0.0185185
        k(   63) = (  -0.4078603  -0.2354782  -0.3035563), wk =   0.0185185
     extrapolated charge   24.01667, renormalised to   24.00000

[...]

     bfgs converged in  15 scf cycles and  14 bfgs steps
     (criteria: energy < 0.10E-03, force < 0.10E-02, cell < 0.50E+00)

     End of BFGS Geometry Optimization

     Final enthalpy =    -140.1077794700 Ry
Begin final coordinates
     new unit-cell volume =    387.75122 a.u.^3 (    57.45880 Ang^3 )

CELL_PARAMETERS (alat=  6.78640000)
   1.021591704   0.000000000   0.000000000
  -0.510795852   0.884724368   0.000000000
  -0.000000000   0.000000000   1.372617279

ATOMIC_POSITIONS (crystal)
Ca      -0.000000000  -0.000000000  -0.000000000
O        0.333333333   0.666666667   0.233499919
O        0.666666667   0.333333333   0.766500081
H        0.333333333   0.666666667   0.433082001
H        0.666666667   0.333333333   0.566917999
End final coordinates

     A final scf calculation at the relaxed structure.
     The G-vectors are recalculated for the final unit cell
     Results may differ from those at the preceding step.

     bravais-lattice index     =            4
     lattice parameter (alat)  =       6.7864  a.u.
     unit-cell volume          =     387.7512 (a.u.)^3
     number of atoms/cell      =            5
     number of atomic types    =            3
     number of electrons       =        24.00
     number of Kohn-Sham states=           12
     kinetic-energy cutoff     =     100.0000  Ry
     charge density cutoff     =     320.0000  Ry
     convergence threshold     =      1.0E-08
     mixing beta               =       0.3000
     number of iterations used =           16  local-TF  mixing
     Exchange-correlation      = PBE ( 1 4 3 4 0)
     EXX-fraction              =        0.00

     celldm(1)=   6.786400  celldm(2)=   0.000000  celldm(3)=   1.315700
     celldm(4)=   0.000000  celldm(5)=   0.000000  celldm(6)=   0.000000

     crystal axes: (cart. coord. in units of alat)
               a(1) = (   1.021592   0.000000   0.000000 )
               a(2) = (  -0.510796   0.884724   0.000000 )
               a(3) = (  -0.000000   0.000000   1.372617 )

     reciprocal axes: (cart. coord. in units 2 pi/alat)
               b(1) = (  0.978865  0.565148  0.000000 )
               b(2) = ( -0.000000  1.130296 -0.000000 )
               b(3) = ( -0.000000 -0.000000  0.728535 )

     PseudoPot. # 1 for H  read from file:
     /home/ilia/espresso/pseudo/H.pbe-sp-mt.ncpp
     MD5 check sum: 7a641936b52ccecd26bd1ad87cca5aed
     Pseudo is Norm-conserving, Zval =  1.0
     Generated by old ld1 code (numerical format)
     Using radial grid of 1076 points,  0 beta functions with:

     PseudoPot. # 2 for O  read from file:
     /home/ilia/espresso/pseudo/O.pbe-sp-mt.ncpp
     MD5 check sum: 8a3d23d410d2f3ebfd0a39faacc72cbb
     Pseudo is Norm-conserving, Zval =  6.0
     Generated by old ld1 code (numerical format)
     Using radial grid of 1130 points,  1 beta functions with:
                l(1) =   1

     PseudoPot. # 3 for Ca read from file:
     /home/ilia/espresso/pseudo/Ca.pbe-sp-mt_ion2.ncpp
     MD5 check sum: 4bcd670d05521f7b178fdf0a334578ab
     Pseudo is Norm-conserving, Zval = 10.0
     Generated by old ld1 code (numerical format)
     Using radial grid of 1153 points,  1 beta functions with:
                l(1) =   1

     atomic species   valence    mass     pseudopotential
        H              1.00     1.00700     H ( 1.00)
        O              6.00    16.00000     O ( 1.00)
        Ca            10.00    40.07800     Ca( 1.00)

     12 Sym. Ops., with inversion, found

   Cartesian axes

     site n.     atom                  positions (alat units)
         1           Ca  tau(   1) = (   0.0000000  -0.0000000  -0.0000000  )
         2           O   tau(   2) = (  -0.0000000   0.5898162   0.3205060  )
         3           O   tau(   3) = (   0.5107959   0.2949081   1.0521113  )
         4           H   tau(   4) = (  -0.0000000   0.5898162   0.5944558  )
         5           H   tau(   5) = (   0.5107959   0.2949081   0.7781614  )

     number of k points=    63
                       cart. coord. in units 2pi/alat
        k(    1) = (   0.0815721   0.1412869   0.0607113), wk =   0.0370370
        k(    2) = (   0.0815721   0.1412869   0.1821338), wk =   0.0370370
        k(    3) = (   0.0815721   0.1412869   0.3035563), wk =   0.0370370
        k(    4) = (   0.0815721   0.3296695   0.0607113), wk =   0.0370370
        k(    5) = (   0.0815721   0.3296695   0.1821338), wk =   0.0370370
        k(    6) = (   0.0815721   0.3296695   0.3035563), wk =   0.0370370
        k(    7) = (   0.0815721   0.5180521   0.0607113), wk =   0.0370370
        k(    8) = (   0.0815721   0.5180521   0.1821338), wk =   0.0370370
        k(    9) = (   0.0815721   0.5180521   0.3035563), wk =   0.0370370
        k(   10) = (   0.0815721  -0.4238608   0.0607113), wk =   0.0370370
        k(   11) = (   0.0815721  -0.4238608   0.1821338), wk =   0.0370370
        k(   12) = (   0.0815721  -0.4238608   0.3035563), wk =   0.0370370
        k(   13) = (   0.0815721  -0.2354782   0.0607113), wk =   0.0370370
        k(   14) = (   0.0815721  -0.2354782   0.1821338), wk =   0.0370370
        k(   15) = (   0.0815721  -0.2354782   0.3035563), wk =   0.0370370
        k(   16) = (   0.0815721  -0.0470956   0.0607113), wk =   0.0185185
        k(   17) = (   0.0815721  -0.0470956   0.1821338), wk =   0.0185185
        k(   18) = (   0.0815721  -0.0470956   0.3035563), wk =   0.0185185
        k(   19) = (   0.2447162   0.4238608   0.0607113), wk =   0.0370370
        k(   20) = (   0.2447162   0.4238608   0.1821338), wk =   0.0370370
        k(   21) = (   0.2447162   0.4238608   0.3035563), wk =   0.0370370
        k(   22) = (   0.2447162   0.6122434   0.0607113), wk =   0.0370370
        k(   23) = (   0.2447162   0.6122434   0.1821338), wk =   0.0370370
        k(   24) = (   0.2447162   0.6122434   0.3035563), wk =   0.0370370
        k(   25) = (   0.2447162  -0.3296695   0.0607113), wk =   0.0370370
        k(   26) = (   0.2447162  -0.3296695   0.1821338), wk =   0.0370370
        k(   27) = (   0.2447162  -0.3296695   0.3035563), wk =   0.0370370
        k(   28) = (   0.2447162  -0.1412869   0.0607113), wk =   0.0185185
        k(   29) = (   0.2447162  -0.1412869   0.1821338), wk =   0.0185185
        k(   30) = (   0.2447162  -0.1412869   0.3035563), wk =   0.0185185
        k(   31) = (   0.4078603   0.7064347   0.0607113), wk =   0.0370370
        k(   32) = (   0.4078603   0.7064347   0.1821338), wk =   0.0370370
        k(   33) = (   0.4078603   0.7064347   0.3035563), wk =   0.0370370
        k(   34) = (   0.4078603  -0.2354782   0.0607113), wk =   0.0185185
        k(   35) = (   0.4078603  -0.2354782   0.1821338), wk =   0.0185185
        k(   36) = (   0.4078603  -0.2354782   0.3035563), wk =   0.0185185
        k(   37) = (  -0.0815721   0.3296695  -0.0607113), wk =   0.0370370
        k(   38) = (  -0.0815721   0.3296695  -0.1821338), wk =   0.0370370
        k(   39) = (  -0.0815721   0.3296695  -0.3035563), wk =   0.0370370
        k(   40) = (  -0.0815721   0.5180521  -0.0607113), wk =   0.0370370
        k(   41) = (  -0.0815721   0.5180521  -0.1821338), wk =   0.0370370
        k(   42) = (  -0.0815721   0.5180521  -0.3035563), wk =   0.0370370
        k(   43) = (  -0.0815721  -0.4238608  -0.0607113), wk =   0.0370370
        k(   44) = (  -0.0815721  -0.4238608  -0.1821338), wk =   0.0370370
        k(   45) = (  -0.0815721  -0.4238608  -0.3035563), wk =   0.0370370
        k(   46) = (  -0.0815721  -0.2354782  -0.0607113), wk =   0.0370370
        k(   47) = (  -0.0815721  -0.2354782  -0.1821338), wk =   0.0370370
        k(   48) = (  -0.0815721  -0.2354782  -0.3035563), wk =   0.0370370
        k(   49) = (  -0.0815721  -0.0470956  -0.0607113), wk =   0.0185185
        k(   50) = (  -0.0815721  -0.0470956  -0.1821338), wk =   0.0185185
        k(   51) = (  -0.0815721  -0.0470956  -0.3035563), wk =   0.0185185
        k(   52) = (  -0.2447162   0.6122434  -0.0607113), wk =   0.0370370
        k(   53) = (  -0.2447162   0.6122434  -0.1821338), wk =   0.0370370
        k(   54) = (  -0.2447162   0.6122434  -0.3035563), wk =   0.0370370
        k(   55) = (  -0.2447162  -0.3296695  -0.0607113), wk =   0.0370370
        k(   56) = (  -0.2447162  -0.3296695  -0.1821338), wk =   0.0370370
        k(   57) = (  -0.2447162  -0.3296695  -0.3035563), wk =   0.0370370
        k(   58) = (  -0.2447162  -0.1412869  -0.0607113), wk =   0.0185185
        k(   59) = (  -0.2447162  -0.1412869  -0.1821338), wk =   0.0185185
        k(   60) = (  -0.2447162  -0.1412869  -0.3035563), wk =   0.0185185
        k(   61) = (  -0.4078603  -0.2354782  -0.0607113), wk =   0.0185185
        k(   62) = (  -0.4078603  -0.2354782  -0.1821338), wk =   0.0185185
        k(   63) = (  -0.4078603  -0.2354782  -0.3035563), wk =   0.0185185

     Largest allocated arrays     est. size (Mb)     dimensions
     Largest temporary arrays     est. size (Mb)     dimensions

     Initial potential from superposition of free atoms

     starting charge   21.99998, renormalised to   24.00000
     Starting wfc are   14 randomized atomic wfcs

     Writing output data file CaOH2_ambient.save

     Self-consistent Calculation

[...]

     total energy              =    -140.10903744 Ry
     Harris-Foulkes estimate   =    -140.10903744 Ry
     estimated scf accuracy    <       0.00000001 Ry

     iteration # 13     ecut=   100.00 Ry     beta=0.30
     Davidson diagonalization with overlap
     ethr =  4.81E-11,  avg # of iterations =  2.0

     End of self-consistent calculation

[...]

          k = 0.4079-0.2355 0.3036 (  6532 PWs)   bands (ev):

[...]

          k =-0.4079-0.2355-0.3036 (  6532 PWs)   bands (ev):

   -34.8516 -16.7193 -16.3775 -16.2653 -13.9935 -13.5407  -1.8034  -1.5699
     1.5984   1.8609   2.0230   2.3696

!    total energy              =    -140.10903744 Ry
     Harris-Foulkes estimate   =    -140.10903744 Ry
     estimated scf accuracy    <          6.4E-10 Ry

     The total energy is the sum of the following terms:

     one-electron contribution =     -66.23282386 Ry
     hartree contribution      =      42.04273736 Ry
     xc contribution           =     -25.88125311 Ry
     ewald contribution        =     -90.03769783 Ry

     convergence has been achieved in  13 iterations

     Forces acting on atoms (Ry/au):

     atom    1 type  3   force =     0.00000000   -0.00000000    0.00000000
     atom    2 type  2   force =    -0.00000000    0.00000000   -0.00013787
     atom    3 type  2   force =     0.00000000   -0.00000000    0.00013787
     atom    4 type  1   force =    -0.00000000   -0.00000000    0.00013917
     atom    5 type  1   force =     0.00000000   -0.00000000   -0.00013917

     Total force =     0.000277     Total SCF correction =     0.000014

     entering subroutine stress ...

          total   stress  (Ry/bohr**3)                   (kbar)     P=    4.79
   0.00002745   0.00000000   0.00000000          4.04      0.00      0.00
   0.00000000   0.00002745  -0.00000000          0.00      4.04     -0.00
   0.00000000  -0.00000000   0.00004272          0.00     -0.00      6.28

     Writing output data file CaOH2_ambient.save

     General routines

   This run was terminated on:   1:29:29  19Apr2014

   JOB DONE.