     Program PWSCF v.5.0.2 (svn rev. 9392) starts on 19Apr2014 at 23: 9:21

     Current dimensions of program PWSCF are:
     Max number of different atomic species (ntypx) = 10
     Max number of k-points (npk) =  40000
     Max angular momentum in pseudopotentials (lmaxx) =  3
     Waiting for input...
     Reading input from standard input

     bravais-lattice index     =            4
     lattice parameter (alat)  =       6.3764  a.u.
     unit-cell volume          =     269.4254 (a.u.)^3
     number of atoms/cell      =            5
     number of atomic types    =            3
     number of electrons       =        24.00
     number of Kohn-Sham states=           12
     kinetic-energy cutoff     =     100.0000  Ry
     charge density cutoff     =     320.0000  Ry
     convergence threshold     =      1.0E-06
     mixing beta               =       0.3000
     number of iterations used =           16  local-TF  mixing
     Exchange-correlation      = PBE ( 1 4 3 4 0)
     EXX-fraction              =        0.00
     nstep                     =           50

     celldm(1)=   6.376400  celldm(2)=   0.000000  celldm(3)=   1.200000
     celldm(4)=   0.000000  celldm(5)=   0.000000  celldm(6)=   0.000000

     crystal axes: (cart. coord. in units of alat)
               a(1) = (   1.000000   0.000000   0.000000 )
               a(2) = (  -0.500000   0.866025   0.000000 )
               a(3) = (   0.000000   0.000000   1.200000 )

     reciprocal axes: (cart. coord. in units 2 pi/alat)
               b(1) = (  1.000000  0.577350 -0.000000 )
               b(2) = (  0.000000  1.154701  0.000000 )
               b(3) = (  0.000000 -0.000000  0.833333 )

     PseudoPot. # 1 for H  read from file:
     /home/ilia/espresso/pseudo/H.pbe-sp-mt.ncpp
     MD5 check sum: 7a641936b52ccecd26bd1ad87cca5aed
     Pseudo is Norm-conserving, Zval =  1.0
     Generated by old ld1 code (numerical format)
     Using radial grid of 1076 points,  0 beta functions with:

     PseudoPot. # 2 for O  read from file:
     /home/ilia/espresso/pseudo/O.pbe-sp-mt.ncpp
     MD5 check sum: 8a3d23d410d2f3ebfd0a39faacc72cbb
     Pseudo is Norm-conserving, Zval =  6.0
     Generated by old ld1 code (numerical format)
     Using radial grid of 1130 points,  1 beta functions with:
                l(1) =   1

     PseudoPot. # 3 for Ca read from file:
     /home/ilia/espresso/pseudo/Ca.pbe-sp-mt_ion2.ncpp
     MD5 check sum: 4bcd670d05521f7b178fdf0a334578ab
     Pseudo is Norm-conserving, Zval = 10.0
     Generated by old ld1 code (numerical format)
     Using radial grid of 1153 points,  1 beta functions with:
                l(1) =   1

     atomic species   valence    mass     pseudopotential
        H              1.00     1.00700     H ( 1.00)
        O              6.00    16.00000     O ( 1.00)
        Ca            10.00    40.07800     Ca( 1.00)

      6 Sym. Ops. (no inversion) found

   Cartesian axes

     site n.     atom                  positions (alat units)
         1           Ca  tau(   1) = (   0.0000000   0.0000000   0.0000000  )
         2           O   tau(   2) = (   0.0000000   0.5773503   0.3444000  )
         3           O   tau(   3) = (   0.5000000   0.2886751   0.8544000  )
         4           H   tau(   4) = (   0.0000000   0.5773503   0.8088000  )
         5           H   tau(   5) = (   0.5000000   0.2886751   0.3900000  )

     number of k points=    63
                       cart. coord. in units 2pi/alat
        k(    1) = (   0.0833333   0.1443376   0.0694444), wk =   0.0370370
        k(    2) = (   0.0833333   0.1443376   0.2083333), wk =   0.0370370
        k(    3) = (   0.0833333   0.1443376   0.3472222), wk =   0.0370370
        k(    4) = (   0.0833333   0.3367877   0.0694444), wk =   0.0370370
        k(    5) = (   0.0833333   0.3367877   0.2083333), wk =   0.0370370
        k(    6) = (   0.0833333   0.3367877   0.3472222), wk =   0.0370370
        k(    7) = (   0.0833333   0.5292377   0.0694444), wk =   0.0370370
        k(    8) = (   0.0833333   0.5292377   0.2083333), wk =   0.0370370
        k(    9) = (   0.0833333   0.5292377   0.3472222), wk =   0.0370370
        k(   10) = (   0.0833333  -0.4330127   0.0694444), wk =   0.0370370
        k(   11) = (   0.0833333  -0.4330127   0.2083333), wk =   0.0370370
        k(   12) = (   0.0833333  -0.4330127   0.3472222), wk =   0.0370370
        k(   13) = (   0.0833333  -0.2405626   0.0694444), wk =   0.0370370
        k(   14) = (   0.0833333  -0.2405626   0.2083333), wk =   0.0370370
        k(   15) = (   0.0833333  -0.2405626   0.3472222), wk =   0.0370370
        k(   16) = (   0.0833333  -0.0481125   0.0694444), wk =   0.0185185
        k(   17) = (   0.0833333  -0.0481125   0.2083333), wk =   0.0185185
        k(   18) = (   0.0833333  -0.0481125   0.3472222), wk =   0.0185185
        k(   19) = (   0.2500000   0.4330127   0.0694444), wk =   0.0370370
        k(   20) = (   0.2500000   0.4330127   0.2083333), wk =   0.0370370
        k(   21) = (   0.2500000   0.4330127   0.3472222), wk =   0.0370370
        k(   22) = (   0.2500000   0.6254628   0.0694444), wk =   0.0370370
        k(   23) = (   0.2500000   0.6254628   0.2083333), wk =   0.0370370
        k(   24) = (   0.2500000   0.6254628   0.3472222), wk =   0.0370370
        k(   25) = (   0.2500000  -0.3367877   0.0694444), wk =   0.0370370
        k(   26) = (   0.2500000  -0.3367877   0.2083333), wk =   0.0370370
        k(   27) = (   0.2500000  -0.3367877   0.3472222), wk =   0.0370370
        k(   28) = (   0.2500000  -0.1443376   0.0694444), wk =   0.0185185
        k(   29) = (   0.2500000  -0.1443376   0.2083333), wk =   0.0185185
        k(   30) = (   0.2500000  -0.1443376   0.3472222), wk =   0.0185185
        k(   31) = (   0.4166667   0.7216878   0.0694444), wk =   0.0370370
        k(   32) = (   0.4166667   0.7216878   0.2083333), wk =   0.0370370
        k(   33) = (   0.4166667   0.7216878   0.3472222), wk =   0.0370370
        k(   34) = (   0.4166667  -0.2405626   0.0694444), wk =   0.0185185
        k(   35) = (   0.4166667  -0.2405626   0.2083333), wk =   0.0185185
        k(   36) = (   0.4166667  -0.2405626   0.3472222), wk =   0.0185185
        k(   37) = (  -0.0833333  -0.3367877   0.0694444), wk =   0.0370370
        k(   38) = (  -0.0833333  -0.3367877   0.2083333), wk =   0.0370370
        k(   39) = (  -0.0833333  -0.3367877   0.3472222), wk =   0.0370370
        k(   40) = (  -0.0833333  -0.5292377   0.0694444), wk =   0.0370370
        k(   41) = (  -0.0833333  -0.5292377   0.2083333), wk =   0.0370370
        k(   42) = (  -0.0833333  -0.5292377   0.3472222), wk =   0.0370370
        k(   43) = (  -0.0833333   0.4330127   0.0694444), wk =   0.0370370
        k(   44) = (  -0.0833333   0.4330127   0.2083333), wk =   0.0370370
        k(   45) = (  -0.0833333   0.4330127   0.3472222), wk =   0.0370370
        k(   46) = (  -0.0833333   0.2405626   0.0694444), wk =   0.0370370
        k(   47) = (  -0.0833333   0.2405626   0.2083333), wk =   0.0370370
        k(   48) = (  -0.0833333   0.2405626   0.3472222), wk =   0.0370370
        k(   49) = (  -0.0833333   0.0481125   0.0694444), wk =   0.0185185
        k(   50) = (  -0.0833333   0.0481125   0.2083333), wk =   0.0185185
        k(   51) = (  -0.0833333   0.0481125   0.3472222), wk =   0.0185185
        k(   52) = (  -0.2500000  -0.6254628   0.0694444), wk =   0.0370370
        k(   53) = (  -0.2500000  -0.6254628   0.2083333), wk =   0.0370370
        k(   54) = (  -0.2500000  -0.6254628   0.3472222), wk =   0.0370370
        k(   55) = (  -0.2500000   0.3367877   0.0694444), wk =   0.0370370
        k(   56) = (  -0.2500000   0.3367877   0.2083333), wk =   0.0370370
        k(   57) = (  -0.2500000   0.3367877   0.3472222), wk =   0.0370370
        k(   58) = (  -0.2500000   0.1443376   0.0694444), wk =   0.0185185
        k(   59) = (  -0.2500000   0.1443376   0.2083333), wk =   0.0185185
        k(   60) = (  -0.2500000   0.1443376   0.3472222), wk =   0.0185185
        k(   61) = (  -0.4166667   0.2405626   0.0694444), wk =   0.0185185
        k(   62) = (  -0.4166667   0.2405626   0.2083333), wk =   0.0185185
        k(   63) = (  -0.4166667   0.2405626   0.3472222), wk =   0.0185185

     Largest allocated arrays     est. size (Mb)     dimensions
     Largest temporary arrays     est. size (Mb)     dimensions

     Initial potential from superposition of free atoms

     starting charge   21.99998, renormalised to   24.00000
     Starting wfc are   14 randomized atomic wfcs

     Self-consistent Calculation

     iteration #  1     ecut=   100.00 Ry     beta=0.30
     Davidson diagonalization with overlap
     ethr =  1.00E-02,  avg # of iterations =  2.0

     total energy              =    -139.77634174 Ry
     Harris-Foulkes estimate   =    -139.85804412 Ry
     estimated scf accuracy    <       0.41024085 Ry

[...]

     End of self-consistent calculation

          k = 0.0833 0.1443 0.0694 (  4531 PWs)   bands (ev):

   -30.6285 -12.5270 -12.2661 -11.9733  -9.7029  -7.7872   3.1512   4.3234
     5.1207   5.6082   6.3512   6.7386

[...]

          k =-0.0833-0.3368 0.0694 (  4545 PWs)   bands (ev):

[...]

!    total energy              =    -139.66443263 Ry
     Harris-Foulkes estimate   =    -139.66443299 Ry
     estimated scf accuracy    <       0.00000055 Ry

     The total energy is the sum of the following terms:

     one-electron contribution =     -31.97812452 Ry
     hartree contribution      =      28.59564857 Ry
     xc contribution           =     -25.69828264 Ry
     ewald contribution        =    -110.58367403 Ry

     convergence has been achieved in   9 iterations

     Forces acting on atoms (Ry/au):

     atom    1 type  3   force =     0.00000000    0.00000000   -0.00064417
     atom    2 type  2   force =     0.00000000   -0.00000000    0.04775560
     atom    3 type  2   force =     0.00000000    0.00000000   -0.04751270
     atom    4 type  1   force =     0.00000000    0.00000000   -0.14509409
     atom    5 type  1   force =     0.00000000   -0.00000000    0.14549537

     Total force =     0.216240     Total SCF correction =     0.001227

     entering subroutine stress ...

          total   stress  (Ry/bohr**3)                   (kbar)     P=  146.36
   0.00154714   0.00000000   0.00000000        227.59      0.00      0.00
   0.00000000   0.00154714  -0.00000000          0.00    227.59     -0.00
   0.00000000  -0.00000000  -0.00010946          0.00     -0.00    -16.10

     BFGS Geometry Optimization

     number of scf cycles    =   1
     number of bfgs steps    =   0

     enthalpy new            =    -139.2981292345 Ry

     new trust radius        =       0.1454953651 bohr
     new conv_thr            =       0.0000010000 Ry

     new unit-cell volume =    261.97015 a.u.^3 (    38.81997 Ang^3 )

CELL_PARAMETERS (alat=  6.37640000)
   1.004689105   0.000000000  -0.000000000
  -0.502344553   0.870086288  -0.000000000
   0.000000000  -0.000000000   1.155928932

ATOMIC_POSITIONS (crystal)
Ca       0.000000000   0.000000000  -0.000084187
O        0.333333333   0.666666667   0.293241191
O        0.666666667   0.333333333   0.705790554
[...]
O        0.666666667   0.333333333   0.733927070
H        0.333333333   0.666666667   0.496155577
H        0.666666667   0.333333333   0.502966968

     Writing output data file CaOH2_ambient.save
     NEW-OLD atomic charge density approx. for the potential
     NEW k-points:
        k(    1) = (   0.0818174   0.1417119   0.0663426), wk =   0.0370370
        k(    2) = (   0.0818174   0.1417119   0.1990278), wk =   0.0370370
        k(    3) = (   0.0818174   0.1417119   0.3317130), wk =   0.0370370
        k(    4) = (   0.0818174   0.3306611   0.0663426), wk =   0.0370370
        k(    5) = (   0.0818174   0.3306611   0.1990278), wk =   0.0370370
        k(    6) = (   0.0818174   0.3306611   0.3317130), wk =   0.0370370
        k(    7) = (   0.0818174   0.5196102   0.0663426), wk =   0.0370370
        k(    8) = (   0.0818174   0.5196102   0.1990278), wk =   0.0370370
        k(    9) = (   0.0818174   0.5196102   0.3317130), wk =   0.0370370
        k(   10) = (   0.0818174  -0.4251357   0.0663426), wk =   0.0370370
        k(   11) = (   0.0818174  -0.4251357   0.1990278), wk =   0.0370370
        k(   12) = (   0.0818174  -0.4251357   0.3317130), wk =   0.0370370
        k(   13) = (   0.0818174  -0.2361865   0.0663426), wk =   0.0370370
        k(   14) = (   0.0818174  -0.2361865   0.1990278), wk =   0.0370370
        k(   15) = (   0.0818174  -0.2361865   0.3317130), wk =   0.0370370
        k(   16) = (   0.0818174  -0.0472373   0.0663426), wk =   0.0185185
        k(   17) = (   0.0818174  -0.0472373   0.1990278), wk =   0.0185185
        k(   18) = (   0.0818174  -0.0472373   0.3317130), wk =   0.0185185
        k(   19) = (   0.2454522   0.4251357   0.0663426), wk =   0.0370370
        k(   20) = (   0.2454522   0.4251357   0.1990278), wk =   0.0370370
        k(   21) = (   0.2454522   0.4251357   0.3317130), wk =   0.0370370
        k(   22) = (   0.2454522   0.6140848   0.0663426), wk =   0.0370370
        k(   23) = (   0.2454522   0.6140848   0.1990278), wk =   0.0370370
        k(   24) = (   0.2454522   0.6140848   0.3317130), wk =   0.0370370
        k(   25) = (   0.2454522  -0.3306611   0.0663426), wk =   0.0370370
        k(   26) = (   0.2454522  -0.3306611   0.1990278), wk =   0.0370370
        k(   27) = (   0.2454522  -0.3306611   0.3317130), wk =   0.0370370
        k(   28) = (   0.2454522  -0.1417119   0.0663426), wk =   0.0185185
        k(   29) = (   0.2454522  -0.1417119   0.1990278), wk =   0.0185185
        k(   30) = (   0.2454522  -0.1417119   0.3317130), wk =   0.0185185
        k(   31) = (   0.4090870   0.7085594   0.0663426), wk =   0.0370370
        k(   32) = (   0.4090870   0.7085594   0.1990278), wk =   0.0370370
        k(   33) = (   0.4090870   0.7085594   0.3317130), wk =   0.0370370
        k(   34) = (   0.4090870  -0.2361865   0.0663426), wk =   0.0185185
        k(   35) = (   0.4090870  -0.2361865   0.1990278), wk =   0.0185185
        k(   36) = (   0.4090870  -0.2361865   0.3317130), wk =   0.0185185
        k(   37) = (  -0.0818174  -0.3306611   0.0663426), wk =   0.0370370
        k(   38) = (  -0.0818174  -0.3306611   0.1990278), wk =   0.0370370
        k(   39) = (  -0.0818174  -0.3306611   0.3317130), wk =   0.0370370
        k(   40) = (  -0.0818174  -0.5196102   0.0663426), wk =   0.0370370
        k(   41) = (  -0.0818174  -0.5196102   0.1990278), wk =   0.0370370
        k(   42) = (  -0.0818174  -0.5196102   0.3317130), wk =   0.0370370
        k(   43) = (  -0.0818174   0.4251357   0.0663426), wk =   0.0370370
        k(   44) = (  -0.0818174   0.4251357   0.1990278), wk =   0.0370370
        k(   45) = (  -0.0818174   0.4251357   0.3317130), wk =   0.0370370
        k(   46) = (  -0.0818174   0.2361865   0.0663426), wk =   0.0370370
        k(   47) = (  -0.0818174   0.2361865   0.1990278), wk =   0.0370370
        k(   48) = (  -0.0818174   0.2361865   0.3317130), wk =   0.0370370
        k(   49) = (  -0.0818174   0.0472373   0.0663426), wk =   0.0185185
        k(   50) = (  -0.0818174   0.0472373   0.1990278), wk =   0.0185185
        k(   51) = (  -0.0818174   0.0472373   0.3317130), wk =   0.0185185
        k(   52) = (  -0.2454522  -0.6140848   0.0663426), wk =   0.0370370
        k(   53) = (  -0.2454522  -0.6140848   0.1990278), wk =   0.0370370
        k(   54) = (  -0.2454522  -0.6140848   0.3317130), wk =   0.0370370
        k(   55) = (  -0.2454522   0.3306611   0.0663426), wk =   0.0370370
        k(   56) = (  -0.2454522   0.3306611   0.1990278), wk =   0.0370370
        k(   57) = (  -0.2454522   0.3306611   0.3317130), wk =   0.0370370
        k(   58) = (  -0.2454522   0.1417119   0.0663426), wk =   0.0185185
        k(   59) = (  -0.2454522   0.1417119   0.1990278), wk =   0.0185185
        k(   60) = (  -0.2454522   0.1417119   0.3317130), wk =   0.0185185
        k(   61) = (  -0.4090870   0.2361865   0.0663426), wk =   0.0185185
        k(   62) = (  -0.4090870   0.2361865   0.1990278), wk =   0.0185185
        k(   63) = (  -0.4090870   0.2361865   0.3317130), wk =   0.0185185
     extrapolated charge   24.00966, renormalised to   24.00000

[...]

     Threshold (ethr) on eigenvalues was too large:
     Diagonalizing with lowered threshold

     Davidson diagonalization with overlap
     ethr =  4.71E-08,  avg # of iterations =  1.3

[...]

     Total force =     0.000402     Total SCF correction =     0.000048
     SCF correction compared to forces is large: reduce conv_thr to get better values

[...]

     bfgs converged in  17 scf cycles and  16 bfgs steps
     (criteria: energy < 0.10E-03, force < 0.10E-02, cell < 0.50E+00)

     End of BFGS Geometry Optimization

     Final enthalpy =    -139.6569231776 Ry
Begin final coordinates
     new unit-cell volume =    292.57001 a.u.^3 (    43.35440 Ang^3 )

CELL_PARAMETERS (alat=  6.37640000)
   1.018528309  -0.000000000   0.000000000
  -0.509264155   0.882071390   0.000000000
  -0.000000000   0.000000000   1.256106069

ATOMIC_POSITIONS (crystal)
Ca      -0.000000000  -0.000000000  -0.000242020
O        0.333333333   0.666666667   0.265192404
O        0.666666667   0.333333333   0.733927070
H        0.333333333   0.666666667   0.496155577
H        0.666666667   0.333333333   0.502966968
End final coordinates

     A final scf calculation at the relaxed structure.
     The G-vectors are recalculated for the final unit cell
     Results may differ from those at the preceding step.

     bravais-lattice index     =            4
     lattice parameter (alat)  =       6.3764  a.u.
     unit-cell volume          =     292.5700 (a.u.)^3
     number of atoms/cell      =            5
     number of atomic types    =            3
     number of electrons       =        24.00
     number of Kohn-Sham states=           12
     kinetic-energy cutoff     =     100.0000  Ry
     charge density cutoff     =     320.0000  Ry
     convergence threshold     =      1.0E-08
     mixing beta               =       0.3000
     number of iterations used =           16  local-TF  mixing
     Exchange-correlation      = PBE ( 1 4 3 4 0)
     EXX-fraction              =        0.00

     celldm(1)=   6.376400  celldm(2)=   0.000000  celldm(3)=   1.200000
     celldm(4)=   0.000000  celldm(5)=   0.000000  celldm(6)=   0.000000

     crystal axes: (cart. coord. in units of alat)
               a(1) = (   1.018528  -0.000000   0.000000 )
               a(2) = (  -0.509264   0.882071   0.000000 )
               a(3) = (  -0.000000   0.000000   1.256106 )

     reciprocal axes: (cart. coord. in units 2 pi/alat)
               b(1) = (  0.981809  0.566848 -0.000000 )
               b(2) = (  0.000000  1.133695 -0.000000 )
               b(3) = ( -0.000000 -0.000000  0.796111 )

     PseudoPot. # 1 for H  read from file:
     /home/ilia/espresso/pseudo/H.pbe-sp-mt.ncpp
     MD5 check sum: 7a641936b52ccecd26bd1ad87cca5aed
     Pseudo is Norm-conserving, Zval =  1.0
     Generated by old ld1 code (numerical format)
     Using radial grid of 1076 points,  0 beta functions with:

     PseudoPot. # 2 for O  read from file:
     /home/ilia/espresso/pseudo/O.pbe-sp-mt.ncpp
     MD5 check sum: 8a3d23d410d2f3ebfd0a39faacc72cbb
     Pseudo is Norm-conserving, Zval =  6.0
     Generated by old ld1 code (numerical format)
     Using radial grid of 1130 points,  1 beta functions with:
                l(1) =   1

     PseudoPot. # 3 for Ca read from file:
     /home/ilia/espresso/pseudo/Ca.pbe-sp-mt_ion2.ncpp
     MD5 check sum: 4bcd670d05521f7b178fdf0a334578ab
     Pseudo is Norm-conserving, Zval = 10.0
     Generated by old ld1 code (numerical format)
     Using radial grid of 1153 points,  1 beta functions with:
                l(1) =   1

     atomic species   valence    mass     pseudopotential
        H              1.00     1.00700     H ( 1.00)
        O              6.00    16.00000     O ( 1.00)
        Ca            10.00    40.07800     Ca( 1.00)

      6 Sym. Ops. (no inversion) found

   Cartesian axes

     site n.     atom                  positions (alat units)
         1           Ca  tau(   1) = (  -0.0000000  -0.0000000  -0.0003040  )
         2           O   tau(   2) = (  -0.0000000   0.5880476   0.3331098  )
         3           O   tau(   3) = (   0.5092642   0.2940238   0.9218902  )
         4           H   tau(   4) = (  -0.0000000   0.5880476   0.6232240  )
         5           H   tau(   5) = (   0.5092642   0.2940238   0.6317799  )

     number of k points=    63
                       cart. coord. in units 2pi/alat
        k(    1) = (   0.0818174   0.1417119   0.0663426), wk =   0.0370370
        k(    2) = (   0.0818174   0.1417119   0.1990278), wk =   0.0370370
        k(    3) = (   0.0818174   0.1417119   0.3317130), wk =   0.0370370
        k(    4) = (   0.0818174   0.3306611   0.0663426), wk =   0.0370370
        k(    5) = (   0.0818174   0.3306611   0.1990278), wk =   0.0370370
        k(    6) = (   0.0818174   0.3306611   0.3317130), wk =   0.0370370
        k(    7) = (   0.0818174   0.5196102   0.0663426), wk =   0.0370370
        k(    8) = (   0.0818174   0.5196102   0.1990278), wk =   0.0370370
        k(    9) = (   0.0818174   0.5196102   0.3317130), wk =   0.0370370
        k(   10) = (   0.0818174  -0.4251357   0.0663426), wk =   0.0370370
        k(   11) = (   0.0818174  -0.4251357   0.1990278), wk =   0.0370370
        k(   12) = (   0.0818174  -0.4251357   0.3317130), wk =   0.0370370
        k(   13) = (   0.0818174  -0.2361865   0.0663426), wk =   0.0370370
        k(   14) = (   0.0818174  -0.2361865   0.1990278), wk =   0.0370370
        k(   15) = (   0.0818174  -0.2361865   0.3317130), wk =   0.0370370
        k(   16) = (   0.0818174  -0.0472373   0.0663426), wk =   0.0185185
        k(   17) = (   0.0818174  -0.0472373   0.1990278), wk =   0.0185185
        k(   18) = (   0.0818174  -0.0472373   0.3317130), wk =   0.0185185
        k(   19) = (   0.2454522   0.4251357   0.0663426), wk =   0.0370370
        k(   20) = (   0.2454522   0.4251357   0.1990278), wk =   0.0370370
        k(   21) = (   0.2454522   0.4251357   0.3317130), wk =   0.0370370
        k(   22) = (   0.2454522   0.6140848   0.0663426), wk =   0.0370370
        k(   23) = (   0.2454522   0.6140848   0.1990278), wk =   0.0370370
        k(   24) = (   0.2454522   0.6140848   0.3317130), wk =   0.0370370
        k(   25) = (   0.2454522  -0.3306611   0.0663426), wk =   0.0370370
        k(   26) = (   0.2454522  -0.3306611   0.1990278), wk =   0.0370370
        k(   27) = (   0.2454522  -0.3306611   0.3317130), wk =   0.0370370
        k(   28) = (   0.2454522  -0.1417119   0.0663426), wk =   0.0185185
        k(   29) = (   0.2454522  -0.1417119   0.1990278), wk =   0.0185185
        k(   30) = (   0.2454522  -0.1417119   0.3317130), wk =   0.0185185
        k(   31) = (   0.4090870   0.7085594   0.0663426), wk =   0.0370370
        k(   32) = (   0.4090870   0.7085594   0.1990278), wk =   0.0370370
        k(   33) = (   0.4090870   0.7085594   0.3317130), wk =   0.0370370
        k(   34) = (   0.4090870  -0.2361865   0.0663426), wk =   0.0185185
        k(   35) = (   0.4090870  -0.2361865   0.1990278), wk =   0.0185185
        k(   36) = (   0.4090870  -0.2361865   0.3317130), wk =   0.0185185
        k(   37) = (  -0.0818174  -0.3306611   0.0663426), wk =   0.0370370
        k(   38) = (  -0.0818174  -0.3306611   0.1990278), wk =   0.0370370
        k(   39) = (  -0.0818174  -0.3306611   0.3317130), wk =   0.0370370
        k(   40) = (  -0.0818174  -0.5196102   0.0663426), wk =   0.0370370
        k(   41) = (  -0.0818174  -0.5196102   0.1990278), wk =   0.0370370
        k(   42) = (  -0.0818174  -0.5196102   0.3317130), wk =   0.0370370
        k(   43) = (  -0.0818174   0.4251357   0.0663426), wk =   0.0370370
        k(   44) = (  -0.0818174   0.4251357   0.1990278), wk =   0.0370370
        k(   45) = (  -0.0818174   0.4251357   0.3317130), wk =   0.0370370
        k(   46) = (  -0.0818174   0.2361865   0.0663426), wk =   0.0370370
        k(   47) = (  -0.0818174   0.2361865   0.1990278), wk =   0.0370370
        k(   48) = (  -0.0818174   0.2361865   0.3317130), wk =   0.0370370
        k(   49) = (  -0.0818174   0.0472373   0.0663426), wk =   0.0185185
        k(   50) = (  -0.0818174   0.0472373   0.1990278), wk =   0.0185185
        k(   51) = (  -0.0818174   0.0472373   0.3317130), wk =   0.0185185
        k(   52) = (  -0.2454522  -0.6140848   0.0663426), wk =   0.0370370
        k(   53) = (  -0.2454522  -0.6140848   0.1990278), wk =   0.0370370
        k(   54) = (  -0.2454522  -0.6140848   0.3317130), wk =   0.0370370
        k(   55) = (  -0.2454522   0.3306611   0.0663426), wk =   0.0370370
        k(   56) = (  -0.2454522   0.3306611   0.1990278), wk =   0.0370370
        k(   57) = (  -0.2454522   0.3306611   0.3317130), wk =   0.0370370
        k(   58) = (  -0.2454522   0.1417119   0.0663426), wk =   0.0185185
        k(   59) = (  -0.2454522   0.1417119   0.1990278), wk =   0.0185185
        k(   60) = (  -0.2454522   0.1417119   0.3317130), wk =   0.0185185
        k(   61) = (  -0.4090870   0.2361865   0.0663426), wk =   0.0185185
        k(   62) = (  -0.4090870   0.2361865   0.1990278), wk =   0.0185185
        k(   63) = (  -0.4090870   0.2361865   0.3317130), wk =   0.0185185

     Largest allocated arrays     est. size (Mb)     dimensions
     Largest temporary arrays     est. size (Mb)     dimensions

     Initial potential from superposition of free atoms

     starting charge   21.99998, renormalised to   24.00000
     Starting wfc are   14 randomized atomic wfcs

     Writing output data file CaOH2_ambient.save

     Self-consistent Calculation

[...]

     total energy              =    -140.05594503 Ry
     Harris-Foulkes estimate   =    -140.05594505 Ry
     estimated scf accuracy    <       0.00000004 Ry

     iteration # 13     ecut=   100.00 Ry     beta=0.30
     Davidson diagonalization with overlap
     ethr =  1.50E-10,  avg # of iterations =  2.0

     End of self-consistent calculation

[...]

          k = 0.4091-0.2362 0.3317 (  4935 PWs)   bands (ev):

[...]

          k =-0.4091 0.2362 0.3317 (  4935 PWs)   bands (ev):

   -31.5084 -13.9431 -13.1818 -12.9853 -11.6067 -10.5242   0.3456   0.7722
     4.1434   4.3782   4.5630   5.3085

!    total energy              =    -140.05594504 Ry
     Harris-Foulkes estimate   =    -140.05594504 Ry
     estimated scf accuracy    <          2.4E-10 Ry

     The total energy is the sum of the following terms:

     one-electron contribution =     -43.62745645 Ry
     hartree contribution      =      33.35547445 Ry
     xc contribution           =     -26.14499190 Ry
     ewald contribution        =    -103.63897114 Ry

     convergence has been achieved in  13 iterations

     Forces acting on atoms (Ry/au):

     atom    1 type  3   force =     0.00000000   -0.00000000   -0.00031828
     atom    2 type  2   force =    -0.00000000   -0.00000000    0.00019047
     atom    3 type  2   force =    -0.00000000   -0.00000000    0.00001994
     atom    4 type  1   force =     0.00000000    0.00000000   -0.00002053
     atom    5 type  1   force =    -0.00000000   -0.00000000    0.00012840

     Total force =     0.000394     Total SCF correction =     0.000013

     entering subroutine stress ...

          total   stress  (Ry/bohr**3)                   (kbar)     P=  206.11
   0.00139338   0.00000000  -0.00000000        204.97      0.00     -0.00
   0.00000000   0.00139338  -0.00000000          0.00    204.97     -0.00
   0.00000000  -0.00000000   0.00141660          0.00     -0.00    208.39

     Writing output data file CaOH2_ambient.save

     General routines

   This run was terminated on:   0:28:45  20Apr2014

   JOB DONE.