     Program PWSCF v.5.0.2 (svn rev. 9392) starts on 19Apr2014 at 14:40:21

     Current dimensions of program PWSCF are:
     Max number of different atomic species (ntypx) = 10
     Max number of k-points (npk) =  40000
     Max angular momentum in pseudopotentials (lmaxx) =  3
     Waiting for input...
     Reading input from standard input

     bravais-lattice index     =            4
     lattice parameter (alat)  =       6.3764  a.u.
     unit-cell volume          =     166.8192 (a.u.)^3
     number of atoms/cell      =            5
     number of atomic types    =            3
     number of electrons       =        24.00
     number of Kohn-Sham states=           12
     kinetic-energy cutoff     =     100.0000  Ry
     charge density cutoff     =     320.0000  Ry
     convergence threshold     =      1.0E-06
     mixing beta               =       0.3000
     number of iterations used =           16  local-TF  mixing
     Exchange-correlation      = PBE ( 1 4 3 4 0)
     EXX-fraction              =        0.00
     nstep                     =           50

     celldm(1)=   6.376400  celldm(2)=   0.000000  celldm(3)=   0.743000
     celldm(4)=   0.000000  celldm(5)=   0.000000  celldm(6)=   0.000000

     crystal axes: (cart. coord. in units of alat)
               a(1) = (   1.000000   0.000000   0.000000 )
               a(2) = (  -0.500000   0.866025   0.000000 )
               a(3) = (   0.000000   0.000000   0.743000 )

     reciprocal axes: (cart. coord. in units 2 pi/alat)
               b(1) = (  1.000000  0.577350 -0.000000 )
               b(2) = (  0.000000  1.154701  0.000000 )
               b(3) = (  0.000000 -0.000000  1.345895 )

     PseudoPot. # 1 for H  read from file:
     /home/ilia/espresso/pseudo/H.pbe-sp-mt.ncpp
     MD5 check sum: 7a641936b52ccecd26bd1ad87cca5aed
     Pseudo is Norm-conserving, Zval =  1.0
     Generated by old ld1 code (numerical format)
     Using radial grid of 1076 points,  0 beta functions with:

     PseudoPot. # 2 for O  read from file:
     /home/ilia/espresso/pseudo/O.pbe-sp-mt.ncpp
     MD5 check sum: 8a3d23d410d2f3ebfd0a39faacc72cbb
     Pseudo is Norm-conserving, Zval =  6.0
     Generated by old ld1 code (numerical format)
     Using radial grid of 1130 points,  1 beta functions with:
                l(1) =   1

     PseudoPot. # 3 for Ca read from file:
     /home/ilia/espresso/pseudo/Ca.pbe-sp-mt_ion2.ncpp
     MD5 check sum: 4bcd670d05521f7b178fdf0a334578ab
     Pseudo is Norm-conserving, Zval = 10.0
     Generated by old ld1 code (numerical format)
     Using radial grid of 1153 points,  1 beta functions with:
                l(1) =   1

     atomic species   valence    mass     pseudopotential
        H              1.00     1.00700     H ( 1.00)
        O              6.00    16.00000     O ( 1.00)
        Ca            10.00    40.07800     Ca( 1.00)

      6 Sym. Ops. (no inversion) found

   Cartesian axes

     site n.     atom                  positions (alat units)
         1           Ca  tau(   1) = (   0.0000000   0.0000000   0.0000000  )
         2           O   tau(   2) = (   0.0000000   0.5773503   0.2132410  )
         3           O   tau(   3) = (   0.5000000   0.2886751   0.5290160  )
         4           H   tau(   4) = (   0.0000000   0.5773503   0.5007820  )
         5           H   tau(   5) = (   0.5000000   0.2886751   0.2414750  )

     number of k points=    63
                       cart. coord. in units 2pi/alat
        k(    1) = (   0.0833333   0.1443376   0.1121579), wk =   0.0370370
        k(    2) = (   0.0833333   0.1443376   0.3364738), wk =   0.0370370
        k(    3) = (   0.0833333   0.1443376   0.5607896), wk =   0.0370370
        k(    4) = (   0.0833333   0.3367877   0.1121579), wk =   0.0370370
        k(    5) = (   0.0833333   0.3367877   0.3364738), wk =   0.0370370
        k(    6) = (   0.0833333   0.3367877   0.5607896), wk =   0.0370370
        k(    7) = (   0.0833333   0.5292377   0.1121579), wk =   0.0370370
        k(    8) = (   0.0833333   0.5292377   0.3364738), wk =   0.0370370
        k(    9) = (   0.0833333   0.5292377   0.5607896), wk =   0.0370370
        k(   10) = (   0.0833333  -0.4330127   0.1121579), wk =   0.0370370
        k(   11) = (   0.0833333  -0.4330127   0.3364738), wk =   0.0370370
        k(   12) = (   0.0833333  -0.4330127   0.5607896), wk =   0.0370370
        k(   13) = (   0.0833333  -0.2405626   0.1121579), wk =   0.0370370
        k(   14) = (   0.0833333  -0.2405626   0.3364738), wk =   0.0370370
        k(   15) = (   0.0833333  -0.2405626   0.5607896), wk =   0.0370370
        k(   16) = (   0.0833333  -0.0481125   0.1121579), wk =   0.0185185
        k(   17) = (   0.0833333  -0.0481125   0.3364738), wk =   0.0185185
        k(   18) = (   0.0833333  -0.0481125   0.5607896), wk =   0.0185185
        k(   19) = (   0.2500000   0.4330127   0.1121579), wk =   0.0370370
        k(   20) = (   0.2500000   0.4330127   0.3364738), wk =   0.0370370
        k(   21) = (   0.2500000   0.4330127   0.5607896), wk =   0.0370370
        k(   22) = (   0.2500000   0.6254628   0.1121579), wk =   0.0370370
        k(   23) = (   0.2500000   0.6254628   0.3364738), wk =   0.0370370
        k(   24) = (   0.2500000   0.6254628   0.5607896), wk =   0.0370370
        k(   25) = (   0.2500000  -0.3367877   0.1121579), wk =   0.0370370
        k(   26) = (   0.2500000  -0.3367877   0.3364738), wk =   0.0370370
        k(   27) = (   0.2500000  -0.3367877   0.5607896), wk =   0.0370370
        k(   28) = (   0.2500000  -0.1443376   0.1121579), wk =   0.0185185
        k(   29) = (   0.2500000  -0.1443376   0.3364738), wk =   0.0185185
        k(   30) = (   0.2500000  -0.1443376   0.5607896), wk =   0.0185185
        k(   31) = (   0.4166667   0.7216878   0.1121579), wk =   0.0370370
        k(   32) = (   0.4166667   0.7216878   0.3364738), wk =   0.0370370
        k(   33) = (   0.4166667   0.7216878   0.5607896), wk =   0.0370370
        k(   34) = (   0.4166667  -0.2405626   0.1121579), wk =   0.0185185
        k(   35) = (   0.4166667  -0.2405626   0.3364738), wk =   0.0185185
        k(   36) = (   0.4166667  -0.2405626   0.5607896), wk =   0.0185185
        k(   37) = (  -0.0833333  -0.3367877   0.1121579), wk =   0.0370370
        k(   38) = (  -0.0833333  -0.3367877   0.3364738), wk =   0.0370370
        k(   39) = (  -0.0833333  -0.3367877   0.5607896), wk =   0.0370370
        k(   40) = (  -0.0833333  -0.5292377   0.1121579), wk =   0.0370370
        k(   41) = (  -0.0833333  -0.5292377   0.3364738), wk =   0.0370370
        k(   42) = (  -0.0833333  -0.5292377   0.5607896), wk =   0.0370370
        k(   43) = (  -0.0833333   0.4330127   0.1121579), wk =   0.0370370
        k(   44) = (  -0.0833333   0.4330127   0.3364738), wk =   0.0370370
        k(   45) = (  -0.0833333   0.4330127   0.5607896), wk =   0.0370370
        k(   46) = (  -0.0833333   0.2405626   0.1121579), wk =   0.0370370
        k(   47) = (  -0.0833333   0.2405626   0.3364738), wk =   0.0370370
        k(   48) = (  -0.0833333   0.2405626   0.5607896), wk =   0.0370370
        k(   49) = (  -0.0833333   0.0481125   0.1121579), wk =   0.0185185
        k(   50) = (  -0.0833333   0.0481125   0.3364738), wk =   0.0185185
        k(   51) = (  -0.0833333   0.0481125   0.5607896), wk =   0.0185185
        k(   52) = (  -0.2500000  -0.6254628   0.1121579), wk =   0.0370370
        k(   53) = (  -0.2500000  -0.6254628   0.3364738), wk =   0.0370370
        k(   54) = (  -0.2500000  -0.6254628   0.5607896), wk =   0.0370370
        k(   55) = (  -0.2500000   0.3367877   0.1121579), wk =   0.0370370
        k(   56) = (  -0.2500000   0.3367877   0.3364738), wk =   0.0370370
        k(   57) = (  -0.2500000   0.3367877   0.5607896), wk =   0.0370370
        k(   58) = (  -0.2500000   0.1443376   0.1121579), wk =   0.0185185
        k(   59) = (  -0.2500000   0.1443376   0.3364738), wk =   0.0185185
        k(   60) = (  -0.2500000   0.1443376   0.5607896), wk =   0.0185185
        k(   61) = (  -0.4166667   0.2405626   0.1121579), wk =   0.0185185
        k(   62) = (  -0.4166667   0.2405626   0.3364738), wk =   0.0185185
        k(   63) = (  -0.4166667   0.2405626   0.5607896), wk =   0.0185185

     Largest allocated arrays     est. size (Mb)     dimensions
     Largest temporary arrays     est. size (Mb)     dimensions

     Initial potential from superposition of free atoms

     starting charge   21.99998, renormalised to   24.00000
     Starting wfc are   14 randomized atomic wfcs

     Self-consistent Calculation

     iteration #  1     ecut=   100.00 Ry     beta=0.30
     Davidson diagonalization with overlap
     ethr =  1.00E-02,  avg # of iterations =  2.0

     total energy              =    -139.59409855 Ry
     Harris-Foulkes estimate   =    -139.68131477 Ry
     estimated scf accuracy    <       0.48878317 Ry

[...]

     End of self-consistent calculation

          k = 0.0833 0.1443 0.1122 (  2820 PWs)   bands (ev):

   -23.7877  -7.2781  -5.1028  -4.5446  -3.9221  -2.2757   9.5748   9.7542
    10.3258  11.9509  14.5439  15.1495

[...]

          k =-0.0833-0.3368 0.1122 (  2825 PWs)   bands (ev):

[...]

!    total energy              =    -139.45592305 Ry
     Harris-Foulkes estimate   =    -139.45592336 Ry
     estimated scf accuracy    <       0.00000060 Ry

     The total energy is the sum of the following terms:

     one-electron contribution =      -0.91007595 Ry
     hartree contribution      =      19.61011364 Ry
     xc contribution           =     -27.03793759 Ry
     ewald contribution        =    -131.11802315 Ry

     convergence has been achieved in  10 iterations

     Forces acting on atoms (Ry/au):

     atom    1 type  3   force =     0.00000000    0.00000000   -0.00009174
     atom    2 type  2   force =     0.00000000    0.00000000    0.02177103
     atom    3 type  2   force =     0.00000000   -0.00000000   -0.02176956
     atom    4 type  1   force =     0.00000000    0.00000000   -0.01389403
     atom    5 type  1   force =     0.00000000   -0.00000000    0.01398431

     Total force =     0.036558     Total SCF correction =     0.000129

     entering subroutine stress ...

          total   stress  (Ry/bohr**3)                   (kbar)     P= 1764.71
   0.01299244   0.00000000   0.00000000       1911.25      0.00      0.00
   0.00000000   0.01299244  -0.00000000          0.00   1911.25     -0.00
   0.00000000   0.00000000   0.01000398          0.00      0.00   1471.64

     BFGS Geometry Optimization

     number of scf cycles    =   1
     number of bfgs steps    =   0

     enthalpy new            =    -137.4146974042 Ry

     new trust radius        =       0.1441521639 bohr
     new conv_thr            =       0.0000010000 Ry

     new unit-cell volume =    163.52242 a.u.^3 (    24.23152 Ang^3 )

CELL_PARAMETERS (alat=  6.37640000)
   1.018907149   0.000000000   0.000000000
  -0.509453575   0.882399475   0.000000000
   0.000000000  -0.000000000   0.701537361

ATOMIC_POSITIONS (crystal)
Ca       0.000000000   0.000000000  -0.000019364
O        0.333333333   0.666666667   0.291595307
O        0.666666667   0.333333333   0.707405002
[...]
H        0.333333333   0.666666667   0.706062337
H        0.666666667   0.333333333   0.293025869

     Writing output data file CaOH2_ambient.save
     NEW-OLD atomic charge density approx. for the potential
     NEW k-points:
        k(    1) = (   0.0817478   0.1415914   0.1188711), wk =   0.0370370
        k(    2) = (   0.0817478   0.1415914   0.3566132), wk =   0.0370370
        k(    3) = (   0.0817478   0.1415914   0.5943553), wk =   0.0370370
        k(    4) = (   0.0817478   0.3303800   0.1188711), wk =   0.0370370
        k(    5) = (   0.0817478   0.3303800   0.3566132), wk =   0.0370370
        k(    6) = (   0.0817478   0.3303800   0.5943553), wk =   0.0370370
        k(    7) = (   0.0817478   0.5191685   0.1188711), wk =   0.0370370
        k(    8) = (   0.0817478   0.5191685   0.3566132), wk =   0.0370370
        k(    9) = (   0.0817478   0.5191685   0.5943553), wk =   0.0370370
        k(   10) = (   0.0817478  -0.4247743   0.1188711), wk =   0.0370370
        k(   11) = (   0.0817478  -0.4247743   0.3566132), wk =   0.0370370
        k(   12) = (   0.0817478  -0.4247743   0.5943553), wk =   0.0370370
        k(   13) = (   0.0817478  -0.2359857   0.1188711), wk =   0.0370370
        k(   14) = (   0.0817478  -0.2359857   0.3566132), wk =   0.0370370
        k(   15) = (   0.0817478  -0.2359857   0.5943553), wk =   0.0370370
        k(   16) = (   0.0817478  -0.0471971   0.1188711), wk =   0.0185185
        k(   17) = (   0.0817478  -0.0471971   0.3566132), wk =   0.0185185
        k(   18) = (   0.0817478  -0.0471971   0.5943553), wk =   0.0185185
        k(   19) = (   0.2452435   0.4247743   0.1188711), wk =   0.0370370
        k(   20) = (   0.2452435   0.4247743   0.3566132), wk =   0.0370370
        k(   21) = (   0.2452435   0.4247743   0.5943553), wk =   0.0370370
        k(   22) = (   0.2452435   0.6135628   0.1188711), wk =   0.0370370
        k(   23) = (   0.2452435   0.6135628   0.3566132), wk =   0.0370370
        k(   24) = (   0.2452435   0.6135628   0.5943553), wk =   0.0370370
        k(   25) = (   0.2452435  -0.3303800   0.1188711), wk =   0.0370370
        k(   26) = (   0.2452435  -0.3303800   0.3566132), wk =   0.0370370
        k(   27) = (   0.2452435  -0.3303800   0.5943553), wk =   0.0370370
        k(   28) = (   0.2452435  -0.1415914   0.1188711), wk =   0.0185185
        k(   29) = (   0.2452435  -0.1415914   0.3566132), wk =   0.0185185
        k(   30) = (   0.2452435  -0.1415914   0.5943553), wk =   0.0185185
        k(   31) = (   0.4087392   0.7079571   0.1188711), wk =   0.0370370
        k(   32) = (   0.4087392   0.7079571   0.3566132), wk =   0.0370370
        k(   33) = (   0.4087392   0.7079571   0.5943553), wk =   0.0370370
        k(   34) = (   0.4087392  -0.2359857   0.1188711), wk =   0.0185185
        k(   35) = (   0.4087392  -0.2359857   0.3566132), wk =   0.0185185
        k(   36) = (   0.4087392  -0.2359857   0.5943553), wk =   0.0185185
        k(   37) = (  -0.0817478  -0.3303800   0.1188711), wk =   0.0370370
        k(   38) = (  -0.0817478  -0.3303800   0.3566132), wk =   0.0370370
        k(   39) = (  -0.0817478  -0.3303800   0.5943553), wk =   0.0370370
        k(   40) = (  -0.0817478  -0.5191685   0.1188711), wk =   0.0370370
        k(   41) = (  -0.0817478  -0.5191685   0.3566132), wk =   0.0370370
        k(   42) = (  -0.0817478  -0.5191685   0.5943553), wk =   0.0370370
        k(   43) = (  -0.0817478   0.4247743   0.1188711), wk =   0.0370370
        k(   44) = (  -0.0817478   0.4247743   0.3566132), wk =   0.0370370
        k(   45) = (  -0.0817478   0.4247743   0.5943553), wk =   0.0370370
        k(   46) = (  -0.0817478   0.2359857   0.1188711), wk =   0.0370370
        k(   47) = (  -0.0817478   0.2359857   0.3566132), wk =   0.0370370
        k(   48) = (  -0.0817478   0.2359857   0.5943553), wk =   0.0370370
        k(   49) = (  -0.0817478   0.0471971   0.1188711), wk =   0.0185185
        k(   50) = (  -0.0817478   0.0471971   0.3566132), wk =   0.0185185
        k(   51) = (  -0.0817478   0.0471971   0.5943553), wk =   0.0185185
        k(   52) = (  -0.2452435  -0.6135628   0.1188711), wk =   0.0370370
        k(   53) = (  -0.2452435  -0.6135628   0.3566132), wk =   0.0370370
        k(   54) = (  -0.2452435  -0.6135628   0.5943553), wk =   0.0370370
        k(   55) = (  -0.2452435   0.3303800   0.1188711), wk =   0.0370370
        k(   56) = (  -0.2452435   0.3303800   0.3566132), wk =   0.0370370
        k(   57) = (  -0.2452435   0.3303800   0.5943553), wk =   0.0370370
        k(   58) = (  -0.2452435   0.1415914   0.1188711), wk =   0.0185185
        k(   59) = (  -0.2452435   0.1415914   0.3566132), wk =   0.0185185
        k(   60) = (  -0.2452435   0.1415914   0.5943553), wk =   0.0185185
        k(   61) = (  -0.4087392   0.2359857   0.1188711), wk =   0.0185185
        k(   62) = (  -0.4087392   0.2359857   0.3566132), wk =   0.0185185
        k(   63) = (  -0.4087392   0.2359857   0.5943553), wk =   0.0185185
     extrapolated charge   23.99962, renormalised to   24.00000

[...]

     Threshold (ethr) on eigenvalues was too large:
     Diagonalizing with lowered threshold

     Davidson diagonalization with overlap
     ethr =  5.67E-10,  avg # of iterations =  3.0

[...]

     Total force =     0.000077     Total SCF correction =     0.000009
     SCF correction compared to forces is large: reduce conv_thr to get better values

[...]

     bfgs converged in  12 scf cycles and   9 bfgs steps
     (criteria: energy < 0.10E-03, force < 0.10E-02, cell < 0.50E+00)

     End of BFGS Geometry Optimization

     Final enthalpy =    -137.4281010173 Ry
Begin final coordinates
     new unit-cell volume =    163.56290 a.u.^3 (    24.23752 Ang^3 )

CELL_PARAMETERS (alat=  6.37640000)
   1.019394888  -0.000000000   0.000000000
  -0.509697444   0.882821869   0.000000000
  -0.000000000  -0.000000000   0.701039676

ATOMIC_POSITIONS (crystal)
Ca       0.000000000   0.000000000  -0.000170581
O        0.333333333   0.666666667   0.294805589
O        0.666666667   0.333333333   0.704276786
H        0.333333333   0.666666667   0.706062337
H        0.666666667   0.333333333   0.293025869
End final coordinates

     A final scf calculation at the relaxed structure.
     The G-vectors are recalculated for the final unit cell
     Results may differ from those at the preceding step.

     bravais-lattice index     =            4
     lattice parameter (alat)  =       6.3764  a.u.
     unit-cell volume          =     163.5629 (a.u.)^3
     number of atoms/cell      =            5
     number of atomic types    =            3
     number of electrons       =        24.00
     number of Kohn-Sham states=           12
     kinetic-energy cutoff     =     100.0000  Ry
     charge density cutoff     =     320.0000  Ry
     convergence threshold     =      1.0E-08
     mixing beta               =       0.3000
     number of iterations used =           16  local-TF  mixing
     Exchange-correlation      = PBE ( 1 4 3 4 0)
     EXX-fraction              =        0.00

     celldm(1)=   6.376400  celldm(2)=   0.000000  celldm(3)=   0.743000
     celldm(4)=   0.000000  celldm(5)=   0.000000  celldm(6)=   0.000000

     crystal axes: (cart. coord. in units of alat)
               a(1) = (   1.019395  -0.000000   0.000000 )
               a(2) = (  -0.509697   0.882822   0.000000 )
               a(3) = (  -0.000000  -0.000000   0.701040 )

     reciprocal axes: (cart. coord. in units 2 pi/alat)
               b(1) = (  0.980974  0.566366  0.000000 )
               b(2) = (  0.000000  1.132731  0.000000 )
               b(3) = ( -0.000000 -0.000000  1.426453 )

     PseudoPot. # 1 for H  read from file:
     /home/ilia/espresso/pseudo/H.pbe-sp-mt.ncpp
     MD5 check sum: 7a641936b52ccecd26bd1ad87cca5aed
     Pseudo is Norm-conserving, Zval =  1.0
     Generated by old ld1 code (numerical format)
     Using radial grid of 1076 points,  0 beta functions with:

     PseudoPot. # 2 for O  read from file:
     /home/ilia/espresso/pseudo/O.pbe-sp-mt.ncpp
     MD5 check sum: 8a3d23d410d2f3ebfd0a39faacc72cbb
     Pseudo is Norm-conserving, Zval =  6.0
     Generated by old ld1 code (numerical format)
     Using radial grid of 1130 points,  1 beta functions with:
                l(1) =   1

     PseudoPot. # 3 for Ca read from file:
     /home/ilia/espresso/pseudo/Ca.pbe-sp-mt_ion2.ncpp
     MD5 check sum: 4bcd670d05521f7b178fdf0a334578ab
     Pseudo is Norm-conserving, Zval = 10.0
     Generated by old ld1 code (numerical format)
     Using radial grid of 1153 points,  1 beta functions with:
                l(1) =   1

     atomic species   valence    mass     pseudopotential
        H              1.00     1.00700     H ( 1.00)
        O              6.00    16.00000     O ( 1.00)
        Ca            10.00    40.07800     Ca( 1.00)

      6 Sym. Ops. (no inversion) found

   Cartesian axes

     site n.     atom                  positions (alat units)
         1           Ca  tau(   1) = (   0.0000000   0.0000000  -0.0001196  )
         2           O   tau(   2) = (   0.0000000   0.5885479   0.2066704  )
         3           O   tau(   3) = (   0.5096974   0.2942740   0.4937260  )
         4           H   tau(   4) = (   0.0000000   0.5885479   0.4949777  )
         5           H   tau(   5) = (   0.5096974   0.2942740   0.2054228  )

     number of k points=    63
                       cart. coord. in units 2pi/alat
        k(    1) = (   0.0817478   0.1415914   0.1188711), wk =   0.0370370
        k(    2) = (   0.0817478   0.1415914   0.3566132), wk =   0.0370370
        k(    3) = (   0.0817478   0.1415914   0.5943553), wk =   0.0370370
        k(    4) = (   0.0817478   0.3303800   0.1188711), wk =   0.0370370
        k(    5) = (   0.0817478   0.3303800   0.3566132), wk =   0.0370370
        k(    6) = (   0.0817478   0.3303800   0.5943553), wk =   0.0370370
        k(    7) = (   0.0817478   0.5191685   0.1188711), wk =   0.0370370
        k(    8) = (   0.0817478   0.5191685   0.3566132), wk =   0.0370370
        k(    9) = (   0.0817478   0.5191685   0.5943553), wk =   0.0370370
        k(   10) = (   0.0817478  -0.4247743   0.1188711), wk =   0.0370370
        k(   11) = (   0.0817478  -0.4247743   0.3566132), wk =   0.0370370
        k(   12) = (   0.0817478  -0.4247743   0.5943553), wk =   0.0370370
        k(   13) = (   0.0817478  -0.2359857   0.1188711), wk =   0.0370370
        k(   14) = (   0.0817478  -0.2359857   0.3566132), wk =   0.0370370
        k(   15) = (   0.0817478  -0.2359857   0.5943553), wk =   0.0370370
        k(   16) = (   0.0817478  -0.0471971   0.1188711), wk =   0.0185185
        k(   17) = (   0.0817478  -0.0471971   0.3566132), wk =   0.0185185
        k(   18) = (   0.0817478  -0.0471971   0.5943553), wk =   0.0185185
        k(   19) = (   0.2452435   0.4247743   0.1188711), wk =   0.0370370
        k(   20) = (   0.2452435   0.4247743   0.3566132), wk =   0.0370370
        k(   21) = (   0.2452435   0.4247743   0.5943553), wk =   0.0370370
        k(   22) = (   0.2452435   0.6135628   0.1188711), wk =   0.0370370
        k(   23) = (   0.2452435   0.6135628   0.3566132), wk =   0.0370370
        k(   24) = (   0.2452435   0.6135628   0.5943553), wk =   0.0370370
        k(   25) = (   0.2452435  -0.3303800   0.1188711), wk =   0.0370370
        k(   26) = (   0.2452435  -0.3303800   0.3566132), wk =   0.0370370
        k(   27) = (   0.2452435  -0.3303800   0.5943553), wk =   0.0370370
        k(   28) = (   0.2452435  -0.1415914   0.1188711), wk =   0.0185185
        k(   29) = (   0.2452435  -0.1415914   0.3566132), wk =   0.0185185
        k(   30) = (   0.2452435  -0.1415914   0.5943553), wk =   0.0185185
        k(   31) = (   0.4087392   0.7079571   0.1188711), wk =   0.0370370
        k(   32) = (   0.4087392   0.7079571   0.3566132), wk =   0.0370370
        k(   33) = (   0.4087392   0.7079571   0.5943553), wk =   0.0370370
        k(   34) = (   0.4087392  -0.2359857   0.1188711), wk =   0.0185185
        k(   35) = (   0.4087392  -0.2359857   0.3566132), wk =   0.0185185
        k(   36) = (   0.4087392  -0.2359857   0.5943553), wk =   0.0185185
        k(   37) = (  -0.0817478  -0.3303800   0.1188711), wk =   0.0370370
        k(   38) = (  -0.0817478  -0.3303800   0.3566132), wk =   0.0370370
        k(   39) = (  -0.0817478  -0.3303800   0.5943553), wk =   0.0370370
        k(   40) = (  -0.0817478  -0.5191685   0.1188711), wk =   0.0370370
        k(   41) = (  -0.0817478  -0.5191685   0.3566132), wk =   0.0370370
        k(   42) = (  -0.0817478  -0.5191685   0.5943553), wk =   0.0370370
        k(   43) = (  -0.0817478   0.4247743   0.1188711), wk =   0.0370370
        k(   44) = (  -0.0817478   0.4247743   0.3566132), wk =   0.0370370
        k(   45) = (  -0.0817478   0.4247743   0.5943553), wk =   0.0370370
        k(   46) = (  -0.0817478   0.2359857   0.1188711), wk =   0.0370370
        k(   47) = (  -0.0817478   0.2359857   0.3566132), wk =   0.0370370
        k(   48) = (  -0.0817478   0.2359857   0.5943553), wk =   0.0370370
        k(   49) = (  -0.0817478   0.0471971   0.1188711), wk =   0.0185185
        k(   50) = (  -0.0817478   0.0471971   0.3566132), wk =   0.0185185
        k(   51) = (  -0.0817478   0.0471971   0.5943553), wk =   0.0185185
        k(   52) = (  -0.2452435  -0.6135628   0.1188711), wk =   0.0370370
        k(   53) = (  -0.2452435  -0.6135628   0.3566132), wk =   0.0370370
        k(   54) = (  -0.2452435  -0.6135628   0.5943553), wk =   0.0370370
        k(   55) = (  -0.2452435   0.3303800   0.1188711), wk =   0.0370370
        k(   56) = (  -0.2452435   0.3303800   0.3566132), wk =   0.0370370
        k(   57) = (  -0.2452435   0.3303800   0.5943553), wk =   0.0370370
        k(   58) = (  -0.2452435   0.1415914   0.1188711), wk =   0.0185185
        k(   59) = (  -0.2452435   0.1415914   0.3566132), wk =   0.0185185
        k(   60) = (  -0.2452435   0.1415914   0.5943553), wk =   0.0185185
        k(   61) = (  -0.4087392   0.2359857   0.1188711), wk =   0.0185185
        k(   62) = (  -0.4087392   0.2359857   0.3566132), wk =   0.0185185
        k(   63) = (  -0.4087392   0.2359857   0.5943553), wk =   0.0185185

     Largest allocated arrays     est. size (Mb)     dimensions
     Largest temporary arrays     est. size (Mb)     dimensions

     Initial potential from superposition of free atoms

     starting charge   21.99998, renormalised to   24.00000
     Starting wfc are   14 randomized atomic wfcs

     Writing output data file CaOH2_ambient.save

     Self-consistent Calculation

[...]

     total energy              =    -139.42950367 Ry
     Harris-Foulkes estimate   =    -139.42950373 Ry
     estimated scf accuracy    <       0.00000012 Ry

     iteration # 11     ecut=   100.00 Ry     beta=0.30
     Davidson diagonalization with overlap
     ethr =  1.48E-10,  avg # of iterations =  3.0

     End of self-consistent calculation

[...]

          k = 0.4087-0.2360 0.5944 (  2772 PWs)   bands (ev):

[...]

          k =-0.4087 0.2360 0.5944 (  2772 PWs)   bands (ev):

   -22.9754  -7.5203  -5.9964  -4.6250  -2.8632  -1.4045   5.5400   5.9489
    11.2291  13.4558  14.6526  14.7031

!    total energy              =    -139.42950370 Ry
     Harris-Foulkes estimate   =    -139.42950370 Ry
     estimated scf accuracy    <          1.9E-10 Ry

     The total energy is the sum of the following terms:

     one-electron contribution =       0.83011410 Ry
     hartree contribution      =      18.96887005 Ry
     xc contribution           =     -27.06178554 Ry
     ewald contribution        =    -132.16670230 Ry

     convergence has been achieved in  11 iterations

     Forces acting on atoms (Ry/au):

     atom    1 type  3   force =     0.00000000    0.00000000   -0.00004822
     atom    2 type  2   force =    -0.00000000   -0.00000000    0.00002939
     atom    3 type  2   force =    -0.00000000   -0.00000000    0.00002144
     atom    4 type  1   force =     0.00000000    0.00000000   -0.00007344
     atom    5 type  1   force =    -0.00000000   -0.00000000    0.00007083

     Total force =     0.000119     Total SCF correction =     0.000042
     SCF correction compared to forces is large: reduce conv_thr to get better values

     entering subroutine stress ...

          total   stress  (Ry/bohr**3)                   (kbar)     P= 1800.35
   0.01225208  -0.00000000   0.00000000       1802.34     -0.00      0.00
  -0.00000000   0.01225208   0.00000000         -0.00   1802.34      0.00
   0.00000000  -0.00000000   0.01221152          0.00     -0.00   1796.38

     Writing output data file CaOH2_ambient.save

     General routines

   This run was terminated on:  15: 8:22  19Apr2014

   JOB DONE.