     Program PWSCF v.5.0.2 (svn rev. 9392) starts on  3Jun2014 at 16: 0:40

     Current dimensions of program PWSCF are:
     Max number of different atomic species (ntypx) = 10
     Max number of k-points (npk) =  40000
     Max angular momentum in pseudopotentials (lmaxx) =  3
     Waiting for input...
     Reading input from standard input

     bravais-lattice index     =            4
     lattice parameter (alat)  =       6.8695  a.u.
     unit-cell volume          =     367.8832 (a.u.)^3
     number of atoms/cell      =            6
     number of atomic types    =            2
     number of electrons       =        24.00
     number of Kohn-Sham states=           12
     kinetic-energy cutoff     =      80.0000  Ry
     charge density cutoff     =     320.0000  Ry
     convergence threshold     =      1.0E-06
     mixing beta               =       0.3000
     number of iterations used =           16  local-TF  mixing
     Exchange-correlation      = PBE ( 1 4 3 4 0)
     EXX-fraction              =        0.00
     nstep                     =           50

     celldm(1)=   6.869500  celldm(2)=   0.000000  celldm(3)=   1.310400
     celldm(4)=   0.000000  celldm(5)=   0.000000  celldm(6)=   0.000000

     crystal axes: (cart. coord. in units of alat)
               a(1) = (   1.000000   0.000000   0.000000 )
               a(2) = (  -0.500000   0.866025   0.000000 )
               a(3) = (   0.000000   0.000000   1.310400 )

     reciprocal axes: (cart. coord. in units 2 pi/alat)
               b(1) = (  1.000000  0.577350 -0.000000 )
               b(2) = (  0.000000  1.154701  0.000000 )
               b(3) = (  0.000000 -0.000000  0.763126 )

     PseudoPot. # 1 for H  read from file:
     /home/ilia/espresso/pseudo/H.pbe-sp-mt.ncpp
     MD5 check sum: 7a641936b52ccecd26bd1ad87cca5aed
     Pseudo is Norm-conserving, Zval =  1.0
     Generated by old ld1 code (numerical format)
     Using radial grid of 1076 points,  0 beta functions with:

     PseudoPot. # 2 for Ca read from file:
     /home/ilia/espresso/pseudo/Ca.pbe-sp-mt_ion2.ncpp
     MD5 check sum: 4bcd670d05521f7b178fdf0a334578ab
     Pseudo is Norm-conserving, Zval = 10.0
     Generated by old ld1 code (numerical format)
     Using radial grid of 1153 points,  1 beta functions with:
                l(1) =   1

     atomic species   valence    mass     pseudopotential
        H              1.00     1.00700     H ( 1.00)
        Ca            10.00    40.07800     Ca( 1.00)

     24 Sym. Ops., with inversion, found (12 have fractional translation)

   Cartesian axes

     site n.     atom                  positions (alat units)
         1           Ca  tau(   1) = (   0.0000000   0.5773503   0.3276000  )
         2           Ca  tau(   2) = (   0.5000000   0.2886751   0.9828000  )
         3           H   tau(   3) = (   0.0000000   0.5773503   0.9828000  )
         4           H   tau(   4) = (   0.5000000   0.2886751   0.3276000  )
         5           H   tau(   5) = (   0.0000000   0.0000000   0.0000000  )
         6           H   tau(   6) = (   0.0000000   0.0000000   0.6552000  )

     number of k points=    36
                       cart. coord. in units 2pi/alat
        k(    1) = (   0.0833333   0.1443376   0.0635938), wk =   0.0370370
        k(    2) = (   0.0833333   0.1443376   0.1907814), wk =   0.0370370
        k(    3) = (   0.0833333   0.1443376   0.3179691), wk =   0.0370370
        k(    4) = (   0.0833333   0.3367877   0.0635938), wk =   0.0740741
        k(    5) = (   0.0833333   0.3367877   0.1907814), wk =   0.0740741
        k(    6) = (   0.0833333   0.3367877   0.3179691), wk =   0.0740741
        k(    7) = (   0.0833333   0.5292377   0.0635938), wk =   0.0740741
        k(    8) = (   0.0833333   0.5292377   0.1907814), wk =   0.0740741
        k(    9) = (   0.0833333   0.5292377   0.3179691), wk =   0.0740741
        k(   10) = (   0.0833333  -0.4330127   0.0635938), wk =   0.0740741
        k(   11) = (   0.0833333  -0.4330127   0.1907814), wk =   0.0740741
        k(   12) = (   0.0833333  -0.4330127   0.3179691), wk =   0.0740741
        k(   13) = (   0.0833333  -0.2405626   0.0635938), wk =   0.0740741
        k(   14) = (   0.0833333  -0.2405626   0.1907814), wk =   0.0740741
        k(   15) = (   0.0833333  -0.2405626   0.3179691), wk =   0.0740741
        k(   16) = (   0.0833333  -0.0481125   0.0635938), wk =   0.0370370
        k(   17) = (   0.0833333  -0.0481125   0.1907814), wk =   0.0370370
        k(   18) = (   0.0833333  -0.0481125   0.3179691), wk =   0.0370370
        k(   19) = (   0.2500000   0.4330127   0.0635938), wk =   0.0370370
        k(   20) = (   0.2500000   0.4330127   0.1907814), wk =   0.0370370
        k(   21) = (   0.2500000   0.4330127   0.3179691), wk =   0.0370370
        k(   22) = (   0.2500000   0.6254628   0.0635938), wk =   0.0740741
        k(   23) = (   0.2500000   0.6254628   0.1907814), wk =   0.0740741
        k(   24) = (   0.2500000   0.6254628   0.3179691), wk =   0.0740741
        k(   25) = (   0.2500000  -0.3367877   0.0635938), wk =   0.0740741
        k(   26) = (   0.2500000  -0.3367877   0.1907814), wk =   0.0740741
        k(   27) = (   0.2500000  -0.3367877   0.3179691), wk =   0.0740741
        k(   28) = (   0.2500000  -0.1443376   0.0635938), wk =   0.0370370
        k(   29) = (   0.2500000  -0.1443376   0.1907814), wk =   0.0370370
        k(   30) = (   0.2500000  -0.1443376   0.3179691), wk =   0.0370370
        k(   31) = (   0.4166667   0.7216878   0.0635938), wk =   0.0370370
        k(   32) = (   0.4166667   0.7216878   0.1907814), wk =   0.0370370
        k(   33) = (   0.4166667   0.7216878   0.3179691), wk =   0.0370370
        k(   34) = (   0.4166667  -0.2405626   0.0635938), wk =   0.0370370
        k(   35) = (   0.4166667  -0.2405626   0.1907814), wk =   0.0370370
        k(   36) = (   0.4166667  -0.2405626   0.3179691), wk =   0.0370370

     Largest allocated arrays     est. size (Mb)     dimensions
     Largest temporary arrays     est. size (Mb)     dimensions

     Initial potential from superposition of free atoms

     starting charge   19.99996, renormalised to   24.00000
     Starting wfc are   12 randomized atomic wfcs

     Self-consistent Calculation

     iteration #  1     ecut=    80.00 Ry     beta=0.30
     Davidson diagonalization with overlap
     ethr =  1.00E-02,  avg # of iterations =  2.0

     total energy              =    -153.07279251 Ry
     Harris-Foulkes estimate   =    -154.21365382 Ry
     estimated scf accuracy    <       5.60363544 Ry

[...]

     End of self-consistent calculation

          k = 0.0833 0.1443 0.0636 (  4433 PWs)   bands (ev):

   -31.6045 -31.4301 -13.5095 -13.0075 -12.9923 -12.8512 -12.7664 -12.7627
     1.5643   4.8269   7.1756   8.3198

[...]

!    total energy              =    -151.47372293 Ry
     Harris-Foulkes estimate   =    -151.47372295 Ry
     estimated scf accuracy    <       0.00000006 Ry

     The total energy is the sum of the following terms:

     one-electron contribution =     -43.98543225 Ry
     hartree contribution      =      28.58806407 Ry
     xc contribution           =     -23.69889745 Ry
     ewald contribution        =    -112.37745729 Ry

     convergence has been achieved in  10 iterations

     Forces acting on atoms (Ry/au):

     atom    1 type  2   force =     0.00000000   -0.00000000    0.00000000
     atom    2 type  2   force =     0.00000000    0.00000000    0.00000000
     atom    3 type  1   force =    -0.00000000    0.00000000    0.00000000
     atom    4 type  1   force =     0.00000000   -0.00000000   -0.00000000
     atom    5 type  1   force =    -0.00000000   -0.00000000   -0.00000000
     atom    6 type  1   force =     0.00000000    0.00000000   -0.00000000

     Total force =     0.000000     Total SCF correction =     0.000000

     entering subroutine stress ...

          total   stress  (Ry/bohr**3)                   (kbar)     P=  201.96
   0.00134506  -0.00000000   0.00000000        197.87     -0.00      0.00
  -0.00000000   0.00134506   0.00000000         -0.00    197.87      0.00
   0.00000000   0.00000000   0.00142857          0.00      0.00    210.15

     BFGS Geometry Optimization

     number of scf cycles    =   1
     number of bfgs steps    =   0

     enthalpy new            =    -149.9732313742 Ry

     new trust radius        =       0.2621613416 bohr
     new conv_thr            =       0.0000010000 Ry

     new unit-cell volume =    298.16211 a.u.^3 (    44.18307 Ang^3 )

CELL_PARAMETERS (alat=  6.86950000)
   0.931658625  -0.000000000   0.000000000
  -0.465829313   0.806840037   0.000000000
   0.000000000   0.000000000   1.223581254

ATOMIC_POSITIONS (crystal)
Ca       0.333333333   0.666666667   0.250000000
Ca       0.666666667   0.333333333   0.750000000
H        0.333333333   0.666666667   0.750000000
H        0.666666667   0.333333333   0.250000000
H       -0.000000000  -0.000000000  -0.000000000
H        0.000000000   0.000000000   0.500000000

     Writing output data file CaH2_ambient.save
     NEW-OLD atomic charge density approx. for the potential
     NEW k-points:
        k(    1) = (   0.0894462   0.1549254   0.0681061), wk =   0.0370370
        k(    2) = (   0.0894462   0.1549254   0.2043183), wk =   0.0370370
        k(    3) = (   0.0894462   0.1549254   0.3405304), wk =   0.0370370
        k(    4) = (   0.0894462   0.3614926   0.0681061), wk =   0.0740741
        k(    5) = (   0.0894462   0.3614926   0.2043183), wk =   0.0740741
        k(    6) = (   0.0894462   0.3614926   0.3405304), wk =   0.0740741
        k(    7) = (   0.0894462   0.5680597   0.0681061), wk =   0.0740741
        k(    8) = (   0.0894462   0.5680597   0.2043183), wk =   0.0740741
        k(    9) = (   0.0894462   0.5680597   0.3405304), wk =   0.0740741
        k(   10) = (   0.0894462  -0.4647761   0.0681061), wk =   0.0740741
        k(   11) = (   0.0894462  -0.4647761   0.2043183), wk =   0.0740741
        k(   12) = (   0.0894462  -0.4647761   0.3405304), wk =   0.0740741
        k(   13) = (   0.0894462  -0.2582090   0.0681061), wk =   0.0740741
        k(   14) = (   0.0894462  -0.2582090   0.2043183), wk =   0.0740741
        k(   15) = (   0.0894462  -0.2582090   0.3405304), wk =   0.0740741
        k(   16) = (   0.0894462  -0.0516418   0.0681061), wk =   0.0370370
        k(   17) = (   0.0894462  -0.0516418   0.2043183), wk =   0.0370370
        k(   18) = (   0.0894462  -0.0516418   0.3405304), wk =   0.0370370
        k(   19) = (   0.2683386   0.4647761   0.0681061), wk =   0.0370370
        k(   20) = (   0.2683386   0.4647761   0.2043183), wk =   0.0370370
        k(   21) = (   0.2683386   0.4647761   0.3405304), wk =   0.0370370
        k(   22) = (   0.2683386   0.6713433   0.0681061), wk =   0.0740741
        k(   23) = (   0.2683386   0.6713433   0.2043183), wk =   0.0740741
        k(   24) = (   0.2683386   0.6713433   0.3405304), wk =   0.0740741
        k(   25) = (   0.2683386  -0.3614926   0.0681061), wk =   0.0740741
        k(   26) = (   0.2683386  -0.3614926   0.2043183), wk =   0.0740741
        k(   27) = (   0.2683386  -0.3614926   0.3405304), wk =   0.0740741
        k(   28) = (   0.2683386  -0.1549254   0.0681061), wk =   0.0370370
        k(   29) = (   0.2683386  -0.1549254   0.2043183), wk =   0.0370370
        k(   30) = (   0.2683386  -0.1549254   0.3405304), wk =   0.0370370
        k(   31) = (   0.4472311   0.7746269   0.0681061), wk =   0.0370370
        k(   32) = (   0.4472311   0.7746269   0.2043183), wk =   0.0370370
        k(   33) = (   0.4472311   0.7746269   0.3405304), wk =   0.0370370
        k(   34) = (   0.4472311  -0.2582090   0.0681061), wk =   0.0370370
        k(   35) = (   0.4472311  -0.2582090   0.2043183), wk =   0.0370370
        k(   36) = (   0.4472311  -0.2582090   0.3405304), wk =   0.0370370
     extrapolated charge   19.32329, renormalised to   24.00000

[...]

     enthalpy old            =    -149.9732313742 Ry
     enthalpy new            =    -150.0874995765 Ry

     CASE: enthalpy_new < enthalpy_old

[...]

     Threshold (ethr) on eigenvalues was too large:
     Diagonalizing with lowered threshold

     Davidson diagonalization with overlap
     ethr =  7.28E-08,  avg # of iterations =  1.2

[...]

     number of scf cycles    =   4
     number of bfgs steps    =   3

     enthalpy old            =    -150.0891574831 Ry
     enthalpy new            =    -150.0895779313 Ry

     CASE: enthalpy_new < enthalpy_old

     new trust radius        =       0.0052578966 bohr
     new conv_thr            =       0.0000000100 Ry

     new unit-cell volume =    292.56459 a.u.^3 (    43.35360 Ang^3 )

[...]

ATOMIC_POSITIONS (crystal)
Ca       0.333333333   0.666666667   0.250000000
Ca       0.666666667   0.333333333   0.750000000
H        0.333333333   0.666666667   0.750000000
H        0.666666667   0.333333333   0.250000000
H       -0.000000000  -0.000000000   0.000000000
H       -0.000000000  -0.000000000   0.500000000

     Writing output data file CaH2_ambient.save
     NEW-OLD atomic charge density approx. for the potential
     NEW k-points:
        k(    1) = (   0.0891990   0.1544972   0.0697944), wk =   0.0370370
        k(    2) = (   0.0891990   0.1544972   0.2093831), wk =   0.0370370
        k(    3) = (   0.0891990   0.1544972   0.3489718), wk =   0.0370370
        k(    4) = (   0.0891990   0.3604935   0.0697944), wk =   0.0740741
        k(    5) = (   0.0891990   0.3604935   0.2093831), wk =   0.0740741
        k(    6) = (   0.0891990   0.3604935   0.3489718), wk =   0.0740741
        k(    7) = (   0.0891990   0.5664898   0.0697944), wk =   0.0740741
        k(    8) = (   0.0891990   0.5664898   0.2093831), wk =   0.0740741
        k(    9) = (   0.0891990   0.5664898   0.3489718), wk =   0.0740741
        k(   10) = (   0.0891990  -0.4634917   0.0697944), wk =   0.0740741
        k(   11) = (   0.0891990  -0.4634917   0.2093831), wk =   0.0740741
        k(   12) = (   0.0891990  -0.4634917   0.3489718), wk =   0.0740741
        k(   13) = (   0.0891990  -0.2574954   0.0697944), wk =   0.0740741
        k(   14) = (   0.0891990  -0.2574954   0.2093831), wk =   0.0740741
        k(   15) = (   0.0891990  -0.2574954   0.3489718), wk =   0.0740741
        k(   16) = (   0.0891990  -0.0514991   0.0697944), wk =   0.0370370
        k(   17) = (   0.0891990  -0.0514991   0.2093831), wk =   0.0370370
        k(   18) = (   0.0891990  -0.0514991   0.3489718), wk =   0.0370370
        k(   19) = (   0.2675970   0.4634917   0.0697944), wk =   0.0370370
        k(   20) = (   0.2675970   0.4634917   0.2093831), wk =   0.0370370
        k(   21) = (   0.2675970   0.4634917   0.3489718), wk =   0.0370370
        k(   22) = (   0.2675970   0.6694880   0.0697944), wk =   0.0740741
        k(   23) = (   0.2675970   0.6694880   0.2093831), wk =   0.0740741
        k(   24) = (   0.2675970   0.6694880   0.3489718), wk =   0.0740741
        k(   25) = (   0.2675970  -0.3604935   0.0697944), wk =   0.0740741
        k(   26) = (   0.2675970  -0.3604935   0.2093831), wk =   0.0740741
        k(   27) = (   0.2675970  -0.3604935   0.3489718), wk =   0.0740741
        k(   28) = (   0.2675970  -0.1544972   0.0697944), wk =   0.0370370
        k(   29) = (   0.2675970  -0.1544972   0.2093831), wk =   0.0370370
        k(   30) = (   0.2675970  -0.1544972   0.3489718), wk =   0.0370370
        k(   31) = (   0.4459951   0.7724861   0.0697944), wk =   0.0370370
        k(   32) = (   0.4459951   0.7724861   0.2093831), wk =   0.0370370
        k(   33) = (   0.4459951   0.7724861   0.3489718), wk =   0.0370370
        k(   34) = (   0.4459951  -0.2574954   0.0697944), wk =   0.0370370
        k(   35) = (   0.4459951  -0.2574954   0.2093831), wk =   0.0370370
        k(   36) = (   0.4459951  -0.2574954   0.3489718), wk =   0.0370370
     extrapolated charge   24.03856, renormalised to   24.00000

[...]

     bfgs converged in   5 scf cycles and   4 bfgs steps
     (criteria: energy < 0.10E-03, force < 0.10E-02, cell < 0.50E+00)

     End of BFGS Geometry Optimization

     Final enthalpy =    -150.0896070196 Ry
Begin final coordinates
     new unit-cell volume =    292.56459 a.u.^3 (    43.35360 Ang^3 )

CELL_PARAMETERS (alat=  6.86950000)
   0.934240494  -0.000000000   0.000000000
  -0.467120247   0.809076001  -0.000000000
   0.000000000  -0.000000000   1.193983632

ATOMIC_POSITIONS (crystal)
Ca       0.333333333   0.666666667   0.250000000
Ca       0.666666667   0.333333333   0.750000000
H        0.333333333   0.666666667   0.750000000
H        0.666666667   0.333333333   0.250000000
H       -0.000000000  -0.000000000   0.000000000
H       -0.000000000  -0.000000000   0.500000000
End final coordinates

     A final scf calculation at the relaxed structure.
     The G-vectors are recalculated for the final unit cell
     Results may differ from those at the preceding step.

     bravais-lattice index     =            4
     lattice parameter (alat)  =       6.8695  a.u.
     unit-cell volume          =     292.5646 (a.u.)^3
     number of atoms/cell      =            6
     number of atomic types    =            2
     number of electrons       =        24.00
     number of Kohn-Sham states=           12
     kinetic-energy cutoff     =      80.0000  Ry
     charge density cutoff     =     320.0000  Ry
     convergence threshold     =      1.0E-08
     mixing beta               =       0.3000
     number of iterations used =           16  local-TF  mixing
     Exchange-correlation      = PBE ( 1 4 3 4 0)
     EXX-fraction              =        0.00

     celldm(1)=   6.869500  celldm(2)=   0.000000  celldm(3)=   1.310400
     celldm(4)=   0.000000  celldm(5)=   0.000000  celldm(6)=   0.000000

     crystal axes: (cart. coord. in units of alat)
               a(1) = (   0.934240  -0.000000   0.000000 )
               a(2) = (  -0.467120   0.809076  -0.000000 )
               a(3) = (   0.000000  -0.000000   1.193984 )

     reciprocal axes: (cart. coord. in units 2 pi/alat)
               b(1) = (  1.070388  0.617989 -0.000000 )
               b(2) = (  0.000000  1.235978  0.000000 )
               b(3) = ( -0.000000  0.000000  0.837532 )

     PseudoPot. # 1 for H  read from file:
     /home/ilia/espresso/pseudo/H.pbe-sp-mt.ncpp
     MD5 check sum: 7a641936b52ccecd26bd1ad87cca5aed
     Pseudo is Norm-conserving, Zval =  1.0
     Generated by old ld1 code (numerical format)
     Using radial grid of 1076 points,  0 beta functions with:

     PseudoPot. # 2 for Ca read from file:
     /home/ilia/espresso/pseudo/Ca.pbe-sp-mt_ion2.ncpp
     MD5 check sum: 4bcd670d05521f7b178fdf0a334578ab
     Pseudo is Norm-conserving, Zval = 10.0
     Generated by old ld1 code (numerical format)
     Using radial grid of 1153 points,  1 beta functions with:
                l(1) =   1

     atomic species   valence    mass     pseudopotential
        H              1.00     1.00700     H ( 1.00)
        Ca            10.00    40.07800     Ca( 1.00)

     24 Sym. Ops., with inversion, found (12 have fractional translation)

   Cartesian axes

     site n.     atom                  positions (alat units)
         1           Ca  tau(   1) = (  -0.0000000   0.5393840   0.2984959  )
         2           Ca  tau(   2) = (   0.4671202   0.2696920   0.8954877  )
         3           H   tau(   3) = (  -0.0000000   0.5393840   0.8954877  )
         4           H   tau(   4) = (   0.4671202   0.2696920   0.2984959  )
         5           H   tau(   5) = (  -0.0000000  -0.0000000   0.0000000  )
         6           H   tau(   6) = (  -0.0000000  -0.0000000   0.5969918  )

     number of k points=    36
                       cart. coord. in units 2pi/alat
        k(    1) = (   0.0891990   0.1544972   0.0697944), wk =   0.0370370
        k(    2) = (   0.0891990   0.1544972   0.2093831), wk =   0.0370370
        k(    3) = (   0.0891990   0.1544972   0.3489718), wk =   0.0370370
        k(    4) = (   0.0891990   0.3604935   0.0697944), wk =   0.0740741
        k(    5) = (   0.0891990   0.3604935   0.2093831), wk =   0.0740741
        k(    6) = (   0.0891990   0.3604935   0.3489718), wk =   0.0740741
        k(    7) = (   0.0891990   0.5664898   0.0697944), wk =   0.0740741
        k(    8) = (   0.0891990   0.5664898   0.2093831), wk =   0.0740741
        k(    9) = (   0.0891990   0.5664898   0.3489718), wk =   0.0740741
        k(   10) = (   0.0891990  -0.4634917   0.0697944), wk =   0.0740741
        k(   11) = (   0.0891990  -0.4634917   0.2093831), wk =   0.0740741
        k(   12) = (   0.0891990  -0.4634917   0.3489718), wk =   0.0740741
        k(   13) = (   0.0891990  -0.2574954   0.0697944), wk =   0.0740741
        k(   14) = (   0.0891990  -0.2574954   0.2093831), wk =   0.0740741
        k(   15) = (   0.0891990  -0.2574954   0.3489718), wk =   0.0740741
        k(   16) = (   0.0891990  -0.0514991   0.0697944), wk =   0.0370370
        k(   17) = (   0.0891990  -0.0514991   0.2093831), wk =   0.0370370
        k(   18) = (   0.0891990  -0.0514991   0.3489718), wk =   0.0370370
        k(   19) = (   0.2675970   0.4634917   0.0697944), wk =   0.0370370
        k(   20) = (   0.2675970   0.4634917   0.2093831), wk =   0.0370370
        k(   21) = (   0.2675970   0.4634917   0.3489718), wk =   0.0370370
        k(   22) = (   0.2675970   0.6694880   0.0697944), wk =   0.0740741
        k(   23) = (   0.2675970   0.6694880   0.2093831), wk =   0.0740741
        k(   24) = (   0.2675970   0.6694880   0.3489718), wk =   0.0740741
        k(   25) = (   0.2675970  -0.3604935   0.0697944), wk =   0.0740741
        k(   26) = (   0.2675970  -0.3604935   0.2093831), wk =   0.0740741
        k(   27) = (   0.2675970  -0.3604935   0.3489718), wk =   0.0740741
        k(   28) = (   0.2675970  -0.1544972   0.0697944), wk =   0.0370370
        k(   29) = (   0.2675970  -0.1544972   0.2093831), wk =   0.0370370
        k(   30) = (   0.2675970  -0.1544972   0.3489718), wk =   0.0370370
        k(   31) = (   0.4459951   0.7724861   0.0697944), wk =   0.0370370
        k(   32) = (   0.4459951   0.7724861   0.2093831), wk =   0.0370370
        k(   33) = (   0.4459951   0.7724861   0.3489718), wk =   0.0370370
        k(   34) = (   0.4459951  -0.2574954   0.0697944), wk =   0.0370370
        k(   35) = (   0.4459951  -0.2574954   0.2093831), wk =   0.0370370
        k(   36) = (   0.4459951  -0.2574954   0.3489718), wk =   0.0370370

     Largest allocated arrays     est. size (Mb)     dimensions
     Largest temporary arrays     est. size (Mb)     dimensions

     Initial potential from superposition of free atoms

     starting charge   19.99996, renormalised to   24.00000
     Starting wfc are   12 randomized atomic wfcs

     Writing output data file CaH2_ambient.save

     Self-consistent Calculation

[...]

     total energy              =    -151.27681752 Ry
     Harris-Foulkes estimate   =    -151.27681754 Ry
     estimated scf accuracy    <       0.00000004 Ry

     iteration # 12     ecut=    80.00 Ry     beta=0.30
     Davidson diagonalization with overlap
     ethr =  1.56E-10,  avg # of iterations =  2.0

     End of self-consistent calculation

[...]

          k = 0.4460-0.2575 0.3490 (  3532 PWs)   bands (ev):

   -28.3237 -28.2714 -10.8087 -10.6846  -9.8376  -9.6712  -9.5895  -9.4391
     7.0890   7.6996   8.5359   8.7354

!    total energy              =    -151.27681752 Ry
     Harris-Foulkes estimate   =    -151.27681752 Ry
     estimated scf accuracy    <          2.2E-09 Ry

     The total energy is the sum of the following terms:

     one-electron contribution =     -30.74146518 Ry
     hartree contribution      =      24.83385300 Ry
     xc contribution           =     -24.12566029 Ry
     ewald contribution        =    -121.24354505 Ry

     convergence has been achieved in  12 iterations

     Forces acting on atoms (Ry/au):

     atom    1 type  2   force =     0.00000000   -0.00000000   -0.00000000
     atom    2 type  2   force =    -0.00000000    0.00000000    0.00000000
     atom    3 type  1   force =    -0.00000000   -0.00000000   -0.00000000
     atom    4 type  1   force =     0.00000000    0.00000000   -0.00000000
     atom    5 type  1   force =     0.00000000    0.00000000    0.00000000
     atom    6 type  1   force =    -0.00000000    0.00000000    0.00000000

     Total force =     0.000000     Total SCF correction =     0.000000

     entering subroutine stress ...

          total   stress  (Ry/bohr**3)                   (kbar)     P=  584.43
   0.00397700  -0.00000000   0.00000000        585.04     -0.00      0.00
  -0.00000000   0.00397700   0.00000000         -0.00    585.04      0.00
   0.00000000   0.00000000   0.00396453          0.00      0.00    583.20

     Writing output data file CaH2_ambient.save

     General routines

   This run was terminated on:  16:16:27   3Jun2014

   JOB DONE.