     Program PWSCF v.5.0.2 (svn rev. 9392) starts on 15Jun2014 at  1:19:18

     Current dimensions of program PWSCF are:
     Max number of different atomic species (ntypx) = 10
     Max number of k-points (npk) =  40000
     Max angular momentum in pseudopotentials (lmaxx) =  3
     Waiting for input...
     Reading input from standard input

     bravais-lattice index     =            4
     lattice parameter (alat)  =       7.1520  a.u.
     unit-cell volume          =     396.1522 (a.u.)^3
     number of atoms/cell      =            6
     number of atomic types    =            2
     number of electrons       =        24.00
     number of Kohn-Sham states=           12
     kinetic-energy cutoff     =     120.0000  Ry
     charge density cutoff     =     480.0000  Ry
     convergence threshold     =      1.0E-06
     mixing beta               =       0.3000
     number of iterations used =           16  local-TF  mixing
     Exchange-correlation      = BLYP ( 1 3 1 3 0)
     EXX-fraction              =        0.00
     nstep                     =           50

     celldm(1)=   7.152000  celldm(2)=   0.000000  celldm(3)=   1.250400
     celldm(4)=   0.000000  celldm(5)=   0.000000  celldm(6)=   0.000000

     crystal axes: (cart. coord. in units of alat)
               a(1) = (   1.000000   0.000000   0.000000 )
               a(2) = (  -0.500000   0.866025   0.000000 )
               a(3) = (   0.000000   0.000000   1.250400 )

     reciprocal axes: (cart. coord. in units 2 pi/alat)
               b(1) = (  1.000000  0.577350 -0.000000 )
               b(2) = (  0.000000  1.154701  0.000000 )
               b(3) = (  0.000000 -0.000000  0.799744 )

     PseudoPot. # 1 for H  read from file:
     /home/ilia/espresso/pseudo/H.blyp-vbc.UPF
     MD5 check sum: 64d25ad537c4b939b17faee1147b797b
     Pseudo is Norm-conserving, Zval =  1.0
     Generated by new atomic code, or converted to UPF format
     Using radial grid of  243 points,  0 beta functions with:

     PseudoPot. # 2 for Ca read from file:
     /home/ilia/espresso/pseudo/Ca.blyp-sp-hgh.UPF
     MD5 check sum: 357a6b692114ea82b84239caae8ecfc0
     Pseudo is Norm-conserving, Zval = 10.0
     Generated in analytical, separable form
     Using radial grid of 1169 points,  5 beta functions with:
                l(1) =   0
                l(2) =   0
                l(3) =   1
                l(4) =   1
                l(5) =   2

     atomic species   valence    mass     pseudopotential
        H              1.00     1.00700     H ( 1.00)
        Ca            10.00    40.07800     Ca( 1.00)

     24 Sym. Ops., with inversion, found (12 have fractional translation)

   Cartesian axes

     site n.     atom                  positions (alat units)
         1           Ca  tau(   1) = (   0.0000000   0.5773503   0.3126000  )
         2           Ca  tau(   2) = (   0.5000000   0.2886751   0.9378000  )
         3           H   tau(   3) = (   0.0000000   0.5773503   0.9378000  )
         4           H   tau(   4) = (   0.5000000   0.2886751   0.3126000  )
         5           H   tau(   5) = (   0.0000000   0.0000000   0.0000000  )
         6           H   tau(   6) = (   0.0000000   0.0000000   0.6252000  )

     number of k points=    36
                       cart. coord. in units 2pi/alat
        k(    1) = (   0.0833333   0.1443376   0.0666453), wk =   0.0370370
        k(    2) = (   0.0833333   0.1443376   0.1999360), wk =   0.0370370
        k(    3) = (   0.0833333   0.1443376   0.3332267), wk =   0.0370370
        k(    4) = (   0.0833333   0.3367877   0.0666453), wk =   0.0740741
        k(    5) = (   0.0833333   0.3367877   0.1999360), wk =   0.0740741
        k(    6) = (   0.0833333   0.3367877   0.3332267), wk =   0.0740741
        k(    7) = (   0.0833333   0.5292377   0.0666453), wk =   0.0740741
        k(    8) = (   0.0833333   0.5292377   0.1999360), wk =   0.0740741
        k(    9) = (   0.0833333   0.5292377   0.3332267), wk =   0.0740741
        k(   10) = (   0.0833333  -0.4330127   0.0666453), wk =   0.0740741
        k(   11) = (   0.0833333  -0.4330127   0.1999360), wk =   0.0740741
        k(   12) = (   0.0833333  -0.4330127   0.3332267), wk =   0.0740741
        k(   13) = (   0.0833333  -0.2405626   0.0666453), wk =   0.0740741
        k(   14) = (   0.0833333  -0.2405626   0.1999360), wk =   0.0740741
        k(   15) = (   0.0833333  -0.2405626   0.3332267), wk =   0.0740741
        k(   16) = (   0.0833333  -0.0481125   0.0666453), wk =   0.0370370
        k(   17) = (   0.0833333  -0.0481125   0.1999360), wk =   0.0370370
        k(   18) = (   0.0833333  -0.0481125   0.3332267), wk =   0.0370370
        k(   19) = (   0.2500000   0.4330127   0.0666453), wk =   0.0370370
        k(   20) = (   0.2500000   0.4330127   0.1999360), wk =   0.0370370
        k(   21) = (   0.2500000   0.4330127   0.3332267), wk =   0.0370370
        k(   22) = (   0.2500000   0.6254628   0.0666453), wk =   0.0740741
        k(   23) = (   0.2500000   0.6254628   0.1999360), wk =   0.0740741
        k(   24) = (   0.2500000   0.6254628   0.3332267), wk =   0.0740741
        k(   25) = (   0.2500000  -0.3367877   0.0666453), wk =   0.0740741
        k(   26) = (   0.2500000  -0.3367877   0.1999360), wk =   0.0740741
        k(   27) = (   0.2500000  -0.3367877   0.3332267), wk =   0.0740741
        k(   28) = (   0.2500000  -0.1443376   0.0666453), wk =   0.0370370
        k(   29) = (   0.2500000  -0.1443376   0.1999360), wk =   0.0370370
        k(   30) = (   0.2500000  -0.1443376   0.3332267), wk =   0.0370370
        k(   31) = (   0.4166667   0.7216878   0.0666453), wk =   0.0370370
        k(   32) = (   0.4166667   0.7216878   0.1999360), wk =   0.0370370
        k(   33) = (   0.4166667   0.7216878   0.3332267), wk =   0.0370370
        k(   34) = (   0.4166667  -0.2405626   0.0666453), wk =   0.0370370
        k(   35) = (   0.4166667  -0.2405626   0.1999360), wk =   0.0370370
        k(   36) = (   0.4166667  -0.2405626   0.3332267), wk =   0.0370370

     Largest allocated arrays     est. size (Mb)     dimensions
     Largest temporary arrays     est. size (Mb)     dimensions

     Initial potential from superposition of free atoms

     starting charge   23.98928, renormalised to   24.00000
     Starting wfc are   30 randomized atomic wfcs

     Self-consistent Calculation

     iteration #  1     ecut=   120.00 Ry     beta=0.30
     Davidson diagonalization with overlap
     ethr =  1.00E-02,  avg # of iterations =  2.0

     Threshold (ethr) on eigenvalues was too large:
     Diagonalizing with lowered threshold

     Davidson diagonalization with overlap
     ethr =  9.46E-04,  avg # of iterations =  1.5

     total energy              =    -151.57225362 Ry
     Harris-Foulkes estimate   =    -151.59791152 Ry
     estimated scf accuracy    <       0.24273938 Ry

[...]

     End of self-consistent calculation

          k = 0.0833 0.1443 0.0666 (  8810 PWs)   bands (ev):

   -33.1257 -32.9918 -13.8893 -13.4885 -13.4828 -13.3405 -13.2703 -13.2692
     1.2957   4.0372   6.7097   7.1126

[...]

!    total energy              =    -151.53579454 Ry
     Harris-Foulkes estimate   =    -151.53579465 Ry
     estimated scf accuracy    <       0.00000035 Ry

     The total energy is the sum of the following terms:

     one-electron contribution =     -48.47245937 Ry
     hartree contribution      =      30.10103158 Ry
     xc contribution           =     -23.62192882 Ry
     ewald contribution        =    -109.54243792 Ry

     convergence has been achieved in   8 iterations

     Forces acting on atoms (Ry/au):

     atom    1 type  2   force =     0.00000000   -0.00000000    0.00000000
     atom    2 type  2   force =     0.00000000    0.00000000    0.00000000
     atom    3 type  1   force =     0.00000000   -0.00000000   -0.00000000
     atom    4 type  1   force =     0.00000000    0.00000000    0.00000000
     atom    5 type  1   force =    -0.00000000    0.00000000   -0.00000000
     atom    6 type  1   force =     0.00000000    0.00000000   -0.00000000

     Total force =     0.000000     Total SCF correction =     0.000000

     entering subroutine stress ...

          total   stress  (Ry/bohr**3)                   (kbar)     P=   85.94
   0.00036574  -0.00000000   0.00000000         53.80     -0.00      0.00
  -0.00000000   0.00036574  -0.00000000         -0.00     53.80     -0.00
  -0.00000000   0.00000000   0.00102106         -0.00      0.00    150.20

     BFGS Geometry Optimization

     number of scf cycles    =   1
     number of bfgs steps    =   0

     enthalpy new            =    -150.9971968131 Ry

     new trust radius        =       0.0989041023 bohr
     new conv_thr            =       0.0000010000 Ry

     new unit-cell volume =    373.52332 a.u.^3 (    55.35044 Ang^3 )

CELL_PARAMETERS (alat=  7.15200000)
   0.975154184  -0.000000000  -0.000000000
  -0.487577092   0.844508296   0.000000000
   0.000000000  -0.000000000   1.239818156

ATOMIC_POSITIONS (crystal)
Ca       0.333333333   0.666666667   0.250000000
Ca       0.666666667   0.333333333   0.750000000
H        0.333333333   0.666666667   0.750000000
H        0.666666667   0.333333333   0.250000000
H       -0.000000000   0.000000000  -0.000000000
H        0.000000000   0.000000000   0.500000000

     Writing output data file CaH2_18GPa-blyp-0200.save
     NEW-OLD atomic charge density approx. for the potential
     NEW k-points:
        k(    1) = (   0.0854566   0.1480151   0.0672142), wk =   0.0370370
        k(    2) = (   0.0854566   0.1480151   0.2016425), wk =   0.0370370
        k(    3) = (   0.0854566   0.1480151   0.3360708), wk =   0.0370370
        k(    4) = (   0.0854566   0.3453686   0.0672142), wk =   0.0740741
        k(    5) = (   0.0854566   0.3453686   0.2016425), wk =   0.0740741
        k(    6) = (   0.0854566   0.3453686   0.3360708), wk =   0.0740741
        k(    7) = (   0.0854566   0.5427221   0.0672142), wk =   0.0740741
        k(    8) = (   0.0854566   0.5427221   0.2016425), wk =   0.0740741
        k(    9) = (   0.0854566   0.5427221   0.3360708), wk =   0.0740741
        k(   10) = (   0.0854566  -0.4440454   0.0672142), wk =   0.0740741
        k(   11) = (   0.0854566  -0.4440454   0.2016425), wk =   0.0740741
        k(   12) = (   0.0854566  -0.4440454   0.3360708), wk =   0.0740741
        k(   13) = (   0.0854566  -0.2466919   0.0672142), wk =   0.0740741
        k(   14) = (   0.0854566  -0.2466919   0.2016425), wk =   0.0740741
        k(   15) = (   0.0854566  -0.2466919   0.3360708), wk =   0.0740741
        k(   16) = (   0.0854566  -0.0493384   0.0672142), wk =   0.0370370
        k(   17) = (   0.0854566  -0.0493384   0.2016425), wk =   0.0370370
        k(   18) = (   0.0854566  -0.0493384   0.3360708), wk =   0.0370370
        k(   19) = (   0.2563697   0.4440454   0.0672142), wk =   0.0370370
        k(   20) = (   0.2563697   0.4440454   0.2016425), wk =   0.0370370
        k(   21) = (   0.2563697   0.4440454   0.3360708), wk =   0.0370370
        k(   22) = (   0.2563697   0.6413989   0.0672142), wk =   0.0740741
        k(   23) = (   0.2563697   0.6413989   0.2016425), wk =   0.0740741
        k(   24) = (   0.2563697   0.6413989   0.3360708), wk =   0.0740741
        k(   25) = (   0.2563697  -0.3453686   0.0672142), wk =   0.0740741
        k(   26) = (   0.2563697  -0.3453686   0.2016425), wk =   0.0740741
        k(   27) = (   0.2563697  -0.3453686   0.3360708), wk =   0.0740741
        k(   28) = (   0.2563697  -0.1480151   0.0672142), wk =   0.0370370
        k(   29) = (   0.2563697  -0.1480151   0.2016425), wk =   0.0370370
        k(   30) = (   0.2563697  -0.1480151   0.3360708), wk =   0.0370370
        k(   31) = (   0.4272829   0.7400756   0.0672142), wk =   0.0370370
        k(   32) = (   0.4272829   0.7400756   0.2016425), wk =   0.0370370
        k(   33) = (   0.4272829   0.7400756   0.3360708), wk =   0.0370370
        k(   34) = (   0.4272829  -0.2466919   0.0672142), wk =   0.0370370
        k(   35) = (   0.4272829  -0.2466919   0.2016425), wk =   0.0370370
        k(   36) = (   0.4272829  -0.2466919   0.3360708), wk =   0.0370370
     extrapolated charge   22.54667, renormalised to   24.00000

[...]

     enthalpy old            =    -150.9971968131 Ry
     enthalpy new            =    -151.0132202284 Ry

     CASE: enthalpy_new < enthalpy_old

[...]

     number of scf cycles    =   6
     number of bfgs steps    =   5

     enthalpy old            =    -151.0193876424 Ry
     enthalpy new            =    -151.0194942968 Ry

     CASE: enthalpy_new < enthalpy_old

     new trust radius        =       0.0023695507 bohr
     new conv_thr            =       0.0000000100 Ry

     new unit-cell volume =    355.76738 a.u.^3 (    52.71929 Ang^3 )

[...]

ATOMIC_POSITIONS (crystal)
Ca       0.333333333   0.666666667   0.250000000
Ca       0.666666667   0.333333333   0.750000000
H        0.333333333   0.666666667   0.750000000
H        0.666666667   0.333333333   0.250000000
H        0.000000000   0.000000000   0.000000000
H        0.000000000   0.000000000   0.500000000

     Writing output data file CaH2_18GPa-blyp-0200.save
     NEW-OLD atomic charge density approx. for the potential
     NEW k-points:
        k(    1) = (   0.0880609   0.1525259   0.0664565), wk =   0.0370370
        k(    2) = (   0.0880609   0.1525259   0.1993694), wk =   0.0370370
        k(    3) = (   0.0880609   0.1525259   0.3322823), wk =   0.0370370
        k(    4) = (   0.0880609   0.3558938   0.0664565), wk =   0.0740741
        k(    5) = (   0.0880609   0.3558938   0.1993694), wk =   0.0740741
        k(    6) = (   0.0880609   0.3558938   0.3322823), wk =   0.0740741
        k(    7) = (   0.0880609   0.5592617   0.0664565), wk =   0.0740741
        k(    8) = (   0.0880609   0.5592617   0.1993694), wk =   0.0740741
        k(    9) = (   0.0880609   0.5592617   0.3322823), wk =   0.0740741
        k(   10) = (   0.0880609  -0.4575778   0.0664565), wk =   0.0740741
        k(   11) = (   0.0880609  -0.4575778   0.1993694), wk =   0.0740741
        k(   12) = (   0.0880609  -0.4575778   0.3322823), wk =   0.0740741
        k(   13) = (   0.0880609  -0.2542099   0.0664565), wk =   0.0740741
        k(   14) = (   0.0880609  -0.2542099   0.1993694), wk =   0.0740741
        k(   15) = (   0.0880609  -0.2542099   0.3322823), wk =   0.0740741
        k(   16) = (   0.0880609  -0.0508420   0.0664565), wk =   0.0370370
        k(   17) = (   0.0880609  -0.0508420   0.1993694), wk =   0.0370370
        k(   18) = (   0.0880609  -0.0508420   0.3322823), wk =   0.0370370
        k(   19) = (   0.2641826   0.4575778   0.0664565), wk =   0.0370370
        k(   20) = (   0.2641826   0.4575778   0.1993694), wk =   0.0370370
        k(   21) = (   0.2641826   0.4575778   0.3322823), wk =   0.0370370
        k(   22) = (   0.2641826   0.6609456   0.0664565), wk =   0.0740741
        k(   23) = (   0.2641826   0.6609456   0.1993694), wk =   0.0740741
        k(   24) = (   0.2641826   0.6609456   0.3322823), wk =   0.0740741
        k(   25) = (   0.2641826  -0.3558938   0.0664565), wk =   0.0740741
        k(   26) = (   0.2641826  -0.3558938   0.1993694), wk =   0.0740741
        k(   27) = (   0.2641826  -0.3558938   0.3322823), wk =   0.0740741
        k(   28) = (   0.2641826  -0.1525259   0.0664565), wk =   0.0370370
        k(   29) = (   0.2641826  -0.1525259   0.1993694), wk =   0.0370370
        k(   30) = (   0.2641826  -0.1525259   0.3322823), wk =   0.0370370
        k(   31) = (   0.4403044   0.7626296   0.0664565), wk =   0.0370370
        k(   32) = (   0.4403044   0.7626296   0.1993694), wk =   0.0370370
        k(   33) = (   0.4403044   0.7626296   0.3322823), wk =   0.0370370
        k(   34) = (   0.4403044  -0.2542099   0.0664565), wk =   0.0370370
        k(   35) = (   0.4403044  -0.2542099   0.1993694), wk =   0.0370370
        k(   36) = (   0.4403044  -0.2542099   0.3322823), wk =   0.0370370
     extrapolated charge   23.98448, renormalised to   24.00000

[...]

     Threshold (ethr) on eigenvalues was too large:
     Diagonalizing with lowered threshold

     Davidson diagonalization with overlap
     ethr =  2.49E-08,  avg # of iterations =  3.9

[...]

     bfgs converged in   7 scf cycles and   6 bfgs steps
     (criteria: energy < 0.10E-03, force < 0.10E-02, cell < 0.50E+00)

     End of BFGS Geometry Optimization

     Final enthalpy =    -151.0194977591 Ry
Begin final coordinates
     new unit-cell volume =    355.76738 a.u.^3 (    52.71929 Ang^3 )

CELL_PARAMETERS (alat=  7.15200000)
   0.946315014   0.000000000  -0.000000000
  -0.473157507   0.819532842  -0.000000000
   0.000000000   0.000000000   1.253953756

ATOMIC_POSITIONS (crystal)
Ca       0.333333333   0.666666667   0.250000000
Ca       0.666666667   0.333333333   0.750000000
H        0.333333333   0.666666667   0.750000000
H        0.666666667   0.333333333   0.250000000
H        0.000000000   0.000000000   0.000000000
H        0.000000000   0.000000000   0.500000000
End final coordinates

     A final scf calculation at the relaxed structure.
     The G-vectors are recalculated for the final unit cell
     Results may differ from those at the preceding step.

     bravais-lattice index     =            4
     lattice parameter (alat)  =       7.1520  a.u.
     unit-cell volume          =     355.7674 (a.u.)^3
     number of atoms/cell      =            6
     number of atomic types    =            2
     number of electrons       =        24.00
     number of Kohn-Sham states=           12
     kinetic-energy cutoff     =     120.0000  Ry
     charge density cutoff     =     480.0000  Ry
     convergence threshold     =      1.0E-08
     mixing beta               =       0.3000
     number of iterations used =           16  local-TF  mixing
     Exchange-correlation      = BLYP ( 1 3 1 3 0)
     EXX-fraction              =        0.00

     celldm(1)=   7.152000  celldm(2)=   0.000000  celldm(3)=   1.250400
     celldm(4)=   0.000000  celldm(5)=   0.000000  celldm(6)=   0.000000

     crystal axes: (cart. coord. in units of alat)
               a(1) = (   0.946315   0.000000  -0.000000 )
               a(2) = (  -0.473158   0.819533  -0.000000 )
               a(3) = (   0.000000   0.000000   1.253954 )

     reciprocal axes: (cart. coord. in units 2 pi/alat)
               b(1) = (  1.056731  0.610104 -0.000000 )
               b(2) = ( -0.000000  1.220207 -0.000000 )
               b(3) = (  0.000000  0.000000  0.797478 )

     PseudoPot. # 1 for H  read from file:
     /home/ilia/espresso/pseudo/H.blyp-vbc.UPF
     MD5 check sum: 64d25ad537c4b939b17faee1147b797b
     Pseudo is Norm-conserving, Zval =  1.0
     Generated by new atomic code, or converted to UPF format
     Using radial grid of  243 points,  0 beta functions with:

     PseudoPot. # 2 for Ca read from file:
     /home/ilia/espresso/pseudo/Ca.blyp-sp-hgh.UPF
     MD5 check sum: 357a6b692114ea82b84239caae8ecfc0
     Pseudo is Norm-conserving, Zval = 10.0
     Generated in analytical, separable form
     Using radial grid of 1169 points,  5 beta functions with:
                l(1) =   0
                l(2) =   0
                l(3) =   1
                l(4) =   1
                l(5) =   2

     atomic species   valence    mass     pseudopotential
        H              1.00     1.00700     H ( 1.00)
        Ca            10.00    40.07800     Ca( 1.00)

     24 Sym. Ops., with inversion, found (12 have fractional translation)

   Cartesian axes

     site n.     atom                  positions (alat units)
         1           Ca  tau(   1) = (   0.0000000   0.5463552   0.3134884  )
         2           Ca  tau(   2) = (   0.4731575   0.2731776   0.9404653  )
         3           H   tau(   3) = (   0.0000000   0.5463552   0.9404653  )
         4           H   tau(   4) = (   0.4731575   0.2731776   0.3134884  )
         5           H   tau(   5) = (   0.0000000   0.0000000   0.0000000  )
         6           H   tau(   6) = (   0.0000000   0.0000000   0.6269769  )

     number of k points=    36
                       cart. coord. in units 2pi/alat
        k(    1) = (   0.0880609   0.1525259   0.0664565), wk =   0.0370370
        k(    2) = (   0.0880609   0.1525259   0.1993694), wk =   0.0370370
        k(    3) = (   0.0880609   0.1525259   0.3322823), wk =   0.0370370
        k(    4) = (   0.0880609   0.3558938   0.0664565), wk =   0.0740741
        k(    5) = (   0.0880609   0.3558938   0.1993694), wk =   0.0740741
        k(    6) = (   0.0880609   0.3558938   0.3322823), wk =   0.0740741
        k(    7) = (   0.0880609   0.5592617   0.0664565), wk =   0.0740741
        k(    8) = (   0.0880609   0.5592617   0.1993694), wk =   0.0740741
        k(    9) = (   0.0880609   0.5592617   0.3322823), wk =   0.0740741
        k(   10) = (   0.0880609  -0.4575778   0.0664565), wk =   0.0740741
        k(   11) = (   0.0880609  -0.4575778   0.1993694), wk =   0.0740741
        k(   12) = (   0.0880609  -0.4575778   0.3322823), wk =   0.0740741
        k(   13) = (   0.0880609  -0.2542099   0.0664565), wk =   0.0740741
        k(   14) = (   0.0880609  -0.2542099   0.1993694), wk =   0.0740741
        k(   15) = (   0.0880609  -0.2542099   0.3322823), wk =   0.0740741
        k(   16) = (   0.0880609  -0.0508420   0.0664565), wk =   0.0370370
        k(   17) = (   0.0880609  -0.0508420   0.1993694), wk =   0.0370370
        k(   18) = (   0.0880609  -0.0508420   0.3322823), wk =   0.0370370
        k(   19) = (   0.2641826   0.4575778   0.0664565), wk =   0.0370370
        k(   20) = (   0.2641826   0.4575778   0.1993694), wk =   0.0370370
        k(   21) = (   0.2641826   0.4575778   0.3322823), wk =   0.0370370
        k(   22) = (   0.2641826   0.6609456   0.0664565), wk =   0.0740741
        k(   23) = (   0.2641826   0.6609456   0.1993694), wk =   0.0740741
        k(   24) = (   0.2641826   0.6609456   0.3322823), wk =   0.0740741
        k(   25) = (   0.2641826  -0.3558938   0.0664565), wk =   0.0740741
        k(   26) = (   0.2641826  -0.3558938   0.1993694), wk =   0.0740741
        k(   27) = (   0.2641826  -0.3558938   0.3322823), wk =   0.0740741
        k(   28) = (   0.2641826  -0.1525259   0.0664565), wk =   0.0370370
        k(   29) = (   0.2641826  -0.1525259   0.1993694), wk =   0.0370370
        k(   30) = (   0.2641826  -0.1525259   0.3322823), wk =   0.0370370
        k(   31) = (   0.4403044   0.7626296   0.0664565), wk =   0.0370370
        k(   32) = (   0.4403044   0.7626296   0.1993694), wk =   0.0370370
        k(   33) = (   0.4403044   0.7626296   0.3322823), wk =   0.0370370
        k(   34) = (   0.4403044  -0.2542099   0.0664565), wk =   0.0370370
        k(   35) = (   0.4403044  -0.2542099   0.1993694), wk =   0.0370370
        k(   36) = (   0.4403044  -0.2542099   0.3322823), wk =   0.0370370

     Largest allocated arrays     est. size (Mb)     dimensions
     Largest temporary arrays     est. size (Mb)     dimensions

     Initial potential from superposition of free atoms

     starting charge   23.98928, renormalised to   24.00000
     Starting wfc are   30 randomized atomic wfcs

     Writing output data file CaH2_18GPa-blyp-0200.save

     Self-consistent Calculation

[...]

     total energy              =    -151.50206590 Ry
     Harris-Foulkes estimate   =    -151.50206591 Ry
     estimated scf accuracy    <       0.00000004 Ry

     iteration # 10     ecut=   120.00 Ry     beta=0.30
     Davidson diagonalization with overlap
     ethr =  1.84E-10,  avg # of iterations =  2.1

     End of self-consistent calculation

[...]

          k = 0.4403-0.2542 0.3323 (  7905 PWs)   bands (ev):

   -31.5536 -31.5322 -12.5221 -12.4515 -11.9516 -11.8671 -11.8647 -11.7870
     4.9746   5.4618   6.1284   6.3083

!    total energy              =    -151.50206590 Ry
     Harris-Foulkes estimate   =    -151.50206590 Ry
     estimated scf accuracy    <          5.2E-09 Ry

     The total energy is the sum of the following terms:

     one-electron contribution =     -42.34211022 Ry
     hartree contribution      =      28.31196346 Ry
     xc contribution           =     -23.81546830 Ry
     ewald contribution        =    -113.65645083 Ry

     convergence has been achieved in  10 iterations

     Forces acting on atoms (Ry/au):

     atom    1 type  2   force =    -0.00000000    0.00000000   -0.00000000
     atom    2 type  2   force =    -0.00000000    0.00000000   -0.00000000
     atom    3 type  1   force =    -0.00000000    0.00000000    0.00000000
     atom    4 type  1   force =     0.00000000   -0.00000000    0.00000000
     atom    5 type  1   force =    -0.00000000   -0.00000000   -0.00000000
     atom    6 type  1   force =     0.00000000    0.00000000    0.00000000

     Total force =     0.000000     Total SCF correction =     0.000000

     entering subroutine stress ...

          total   stress  (Ry/bohr**3)                   (kbar)     P=  198.05
   0.00134245   0.00000000   0.00000000        197.48      0.00      0.00
   0.00000000   0.00134245   0.00000000          0.00    197.48      0.00
   0.00000000   0.00000000   0.00135407          0.00      0.00    199.19

     Writing output data file CaH2_18GPa-blyp-0200.save

     General routines

   This run was terminated on:   1:59:37  15Jun2014

   JOB DONE.