     Program PWSCF v.5.0.2 (svn rev. 9392) starts on 15Jun2014 at  4:16:33

     Current dimensions of program PWSCF are:
     Max number of different atomic species (ntypx) = 10
     Max number of k-points (npk) =  40000
     Max angular momentum in pseudopotentials (lmaxx) =  3
     Waiting for input...
     Reading input from standard input

     bravais-lattice index     =            4
     lattice parameter (alat)  =       7.1520  a.u.
     unit-cell volume          =     396.1522 (a.u.)^3
     number of atoms/cell      =            6
     number of atomic types    =            2
     number of electrons       =        24.00
     number of Kohn-Sham states=           12
     kinetic-energy cutoff     =     120.0000  Ry
     charge density cutoff     =     480.0000  Ry
     convergence threshold     =      1.0E-06
     mixing beta               =       0.3000
     number of iterations used =           16  local-TF  mixing
     Exchange-correlation      = BLYP ( 1 3 1 3 0)
     EXX-fraction              =        0.00
     nstep                     =           50

     celldm(1)=   7.152000  celldm(2)=   0.000000  celldm(3)=   1.250400
     celldm(4)=   0.000000  celldm(5)=   0.000000  celldm(6)=   0.000000

     crystal axes: (cart. coord. in units of alat)
               a(1) = (   1.000000   0.000000   0.000000 )
               a(2) = (  -0.500000   0.866025   0.000000 )
               a(3) = (   0.000000   0.000000   1.250400 )

     reciprocal axes: (cart. coord. in units 2 pi/alat)
               b(1) = (  1.000000  0.577350 -0.000000 )
               b(2) = (  0.000000  1.154701  0.000000 )
               b(3) = (  0.000000 -0.000000  0.799744 )

     PseudoPot. # 1 for H  read from file:
     /home/ilia/espresso/pseudo/H.blyp-vbc.UPF
     MD5 check sum: 64d25ad537c4b939b17faee1147b797b
     Pseudo is Norm-conserving, Zval =  1.0
     Generated by new atomic code, or converted to UPF format
     Using radial grid of  243 points,  0 beta functions with:

     PseudoPot. # 2 for Ca read from file:
     /home/ilia/espresso/pseudo/Ca.blyp-sp-hgh.UPF
     MD5 check sum: 357a6b692114ea82b84239caae8ecfc0
     Pseudo is Norm-conserving, Zval = 10.0
     Generated in analytical, separable form
     Using radial grid of 1169 points,  5 beta functions with:
                l(1) =   0
                l(2) =   0
                l(3) =   1
                l(4) =   1
                l(5) =   2

     atomic species   valence    mass     pseudopotential
        H              1.00     1.00700     H ( 1.00)
        Ca            10.00    40.07800     Ca( 1.00)

     24 Sym. Ops., with inversion, found (12 have fractional translation)

   Cartesian axes

     site n.     atom                  positions (alat units)
         1           Ca  tau(   1) = (   0.0000000   0.5773503   0.3126000  )
         2           Ca  tau(   2) = (   0.5000000   0.2886751   0.9378000  )
         3           H   tau(   3) = (   0.0000000   0.5773503   0.9378000  )
         4           H   tau(   4) = (   0.5000000   0.2886751   0.3126000  )
         5           H   tau(   5) = (   0.0000000   0.0000000   0.0000000  )
         6           H   tau(   6) = (   0.0000000   0.0000000   0.6252000  )

     number of k points=    36
                       cart. coord. in units 2pi/alat
        k(    1) = (   0.0833333   0.1443376   0.0666453), wk =   0.0370370
        k(    2) = (   0.0833333   0.1443376   0.1999360), wk =   0.0370370
        k(    3) = (   0.0833333   0.1443376   0.3332267), wk =   0.0370370
        k(    4) = (   0.0833333   0.3367877   0.0666453), wk =   0.0740741
        k(    5) = (   0.0833333   0.3367877   0.1999360), wk =   0.0740741
        k(    6) = (   0.0833333   0.3367877   0.3332267), wk =   0.0740741
        k(    7) = (   0.0833333   0.5292377   0.0666453), wk =   0.0740741
        k(    8) = (   0.0833333   0.5292377   0.1999360), wk =   0.0740741
        k(    9) = (   0.0833333   0.5292377   0.3332267), wk =   0.0740741
        k(   10) = (   0.0833333  -0.4330127   0.0666453), wk =   0.0740741
        k(   11) = (   0.0833333  -0.4330127   0.1999360), wk =   0.0740741
        k(   12) = (   0.0833333  -0.4330127   0.3332267), wk =   0.0740741
        k(   13) = (   0.0833333  -0.2405626   0.0666453), wk =   0.0740741
        k(   14) = (   0.0833333  -0.2405626   0.1999360), wk =   0.0740741
        k(   15) = (   0.0833333  -0.2405626   0.3332267), wk =   0.0740741
        k(   16) = (   0.0833333  -0.0481125   0.0666453), wk =   0.0370370
        k(   17) = (   0.0833333  -0.0481125   0.1999360), wk =   0.0370370
        k(   18) = (   0.0833333  -0.0481125   0.3332267), wk =   0.0370370
        k(   19) = (   0.2500000   0.4330127   0.0666453), wk =   0.0370370
        k(   20) = (   0.2500000   0.4330127   0.1999360), wk =   0.0370370
        k(   21) = (   0.2500000   0.4330127   0.3332267), wk =   0.0370370
        k(   22) = (   0.2500000   0.6254628   0.0666453), wk =   0.0740741
        k(   23) = (   0.2500000   0.6254628   0.1999360), wk =   0.0740741
        k(   24) = (   0.2500000   0.6254628   0.3332267), wk =   0.0740741
        k(   25) = (   0.2500000  -0.3367877   0.0666453), wk =   0.0740741
        k(   26) = (   0.2500000  -0.3367877   0.1999360), wk =   0.0740741
        k(   27) = (   0.2500000  -0.3367877   0.3332267), wk =   0.0740741
        k(   28) = (   0.2500000  -0.1443376   0.0666453), wk =   0.0370370
        k(   29) = (   0.2500000  -0.1443376   0.1999360), wk =   0.0370370
        k(   30) = (   0.2500000  -0.1443376   0.3332267), wk =   0.0370370
        k(   31) = (   0.4166667   0.7216878   0.0666453), wk =   0.0370370
        k(   32) = (   0.4166667   0.7216878   0.1999360), wk =   0.0370370
        k(   33) = (   0.4166667   0.7216878   0.3332267), wk =   0.0370370
        k(   34) = (   0.4166667  -0.2405626   0.0666453), wk =   0.0370370
        k(   35) = (   0.4166667  -0.2405626   0.1999360), wk =   0.0370370
        k(   36) = (   0.4166667  -0.2405626   0.3332267), wk =   0.0370370

     Largest allocated arrays     est. size (Mb)     dimensions
     Largest temporary arrays     est. size (Mb)     dimensions

     Initial potential from superposition of free atoms

     starting charge   23.98928, renormalised to   24.00000
     Starting wfc are   30 randomized atomic wfcs

     Self-consistent Calculation

     iteration #  1     ecut=   120.00 Ry     beta=0.30
     Davidson diagonalization with overlap
     ethr =  1.00E-02,  avg # of iterations =  2.0

     Threshold (ethr) on eigenvalues was too large:
     Diagonalizing with lowered threshold

     Davidson diagonalization with overlap
     ethr =  9.46E-04,  avg # of iterations =  1.5

     total energy              =    -151.57225362 Ry
     Harris-Foulkes estimate   =    -151.59791152 Ry
     estimated scf accuracy    <       0.24273938 Ry

[...]

     End of self-consistent calculation

          k = 0.0833 0.1443 0.0666 (  8810 PWs)   bands (ev):

   -33.1257 -32.9918 -13.8893 -13.4885 -13.4828 -13.3405 -13.2703 -13.2692
     1.2957   4.0372   6.7097   7.1126

[...]

!    total energy              =    -151.53579454 Ry
     Harris-Foulkes estimate   =    -151.53579465 Ry
     estimated scf accuracy    <       0.00000035 Ry

     The total energy is the sum of the following terms:

     one-electron contribution =     -48.47245937 Ry
     hartree contribution      =      30.10103158 Ry
     xc contribution           =     -23.62192882 Ry
     ewald contribution        =    -109.54243792 Ry

     convergence has been achieved in   8 iterations

     Forces acting on atoms (Ry/au):

     atom    1 type  2   force =     0.00000000   -0.00000000    0.00000000
     atom    2 type  2   force =     0.00000000    0.00000000    0.00000000
     atom    3 type  1   force =     0.00000000   -0.00000000   -0.00000000
     atom    4 type  1   force =     0.00000000    0.00000000    0.00000000
     atom    5 type  1   force =    -0.00000000    0.00000000   -0.00000000
     atom    6 type  1   force =     0.00000000    0.00000000   -0.00000000

     Total force =     0.000000     Total SCF correction =     0.000000

     entering subroutine stress ...

          total   stress  (Ry/bohr**3)                   (kbar)     P=   85.94
   0.00036574  -0.00000000   0.00000000         53.80     -0.00      0.00
  -0.00000000   0.00036574  -0.00000000         -0.00     53.80     -0.00
  -0.00000000   0.00000000   0.00102106         -0.00      0.00    150.20

     BFGS Geometry Optimization

     number of scf cycles    =   1
     number of bfgs steps    =   0

     enthalpy new            =    -148.8428059069 Ry

     new trust radius        =       0.5000000000 bohr
     new conv_thr            =       0.0000010000 Ry

     new unit-cell volume =    268.71642 a.u.^3 (    39.81966 Ang^3 )

CELL_PARAMETERS (alat=  7.15200000)
   0.874394413   0.000000000  -0.000000000
  -0.437197207   0.757247775   0.000000000
   0.000000000  -0.000000000   1.109344185

ATOMIC_POSITIONS (crystal)
Ca       0.333333333   0.666666667   0.250000000
Ca       0.666666667   0.333333333   0.750000000
H        0.333333333   0.666666667   0.750000000
H        0.666666667   0.333333333   0.250000000
H       -0.000000000   0.000000000  -0.000000000
H        0.000000000   0.000000000   0.500000000

     Writing output data file CaH2_18GPa-blyp-1000.save
     NEW-OLD atomic charge density approx. for the potential
     NEW k-points:
        k(    1) = (   0.0953041   0.1650715   0.0751195), wk =   0.0370370
        k(    2) = (   0.0953041   0.1650715   0.2253584), wk =   0.0370370
        k(    3) = (   0.0953041   0.1650715   0.3755973), wk =   0.0370370
        k(    4) = (   0.0953041   0.3851668   0.0751195), wk =   0.0740741
        k(    5) = (   0.0953041   0.3851668   0.2253584), wk =   0.0740741
        k(    6) = (   0.0953041   0.3851668   0.3755973), wk =   0.0740741
        k(    7) = (   0.0953041   0.6052620   0.0751195), wk =   0.0740741
        k(    8) = (   0.0953041   0.6052620   0.2253584), wk =   0.0740741
        k(    9) = (   0.0953041   0.6052620   0.3755973), wk =   0.0740741
        k(   10) = (   0.0953041  -0.4952144   0.0751195), wk =   0.0740741
        k(   11) = (   0.0953041  -0.4952144   0.2253584), wk =   0.0740741
        k(   12) = (   0.0953041  -0.4952144   0.3755973), wk =   0.0740741
        k(   13) = (   0.0953041  -0.2751191   0.0751195), wk =   0.0740741
        k(   14) = (   0.0953041  -0.2751191   0.2253584), wk =   0.0740741
        k(   15) = (   0.0953041  -0.2751191   0.3755973), wk =   0.0740741
        k(   16) = (   0.0953041  -0.0550238   0.0751195), wk =   0.0370370
        k(   17) = (   0.0953041  -0.0550238   0.2253584), wk =   0.0370370
        k(   18) = (   0.0953041  -0.0550238   0.3755973), wk =   0.0370370
        k(   19) = (   0.2859122   0.4952144   0.0751195), wk =   0.0370370
        k(   20) = (   0.2859122   0.4952144   0.2253584), wk =   0.0370370
        k(   21) = (   0.2859122   0.4952144   0.3755973), wk =   0.0370370
        k(   22) = (   0.2859122   0.7153097   0.0751195), wk =   0.0740741
[...]
     c_bands:  3 eigenvalues not converged
     c_bands:  3 eigenvalues not converged
     c_bands:  1 eigenvalues not converged
     c_bands:  1 eigenvalues not converged
     c_bands:  4 eigenvalues not converged
     c_bands:  1 eigenvalues not converged
     c_bands:  2 eigenvalues not converged
     c_bands:  4 eigenvalues not converged
     c_bands:  3 eigenvalues not converged
     c_bands:  3 eigenvalues not converged
     c_bands:  4 eigenvalues not converged
     c_bands:  2 eigenvalues not converged
     c_bands:  3 eigenvalues not converged
     c_bands:  2 eigenvalues not converged
     ethr =  1.00E-06,  avg # of iterations = 19.4

     negative rho (up, down):  0.276E-03 0.000E+00

[...]

     enthalpy old            =    -148.8428059069 Ry
     enthalpy new            =    -149.4374051345 Ry

     CASE: enthalpy_new < enthalpy_old

[...]

     Writing output data file CaH2_18GPa-blyp-1000.save
     NEW-OLD atomic charge density approx. for the potential
     NEW k-points:
        k(    1) = (   0.1000832   0.1733492   0.0788284), wk =   0.0370370
        k(    2) = (   0.1000832   0.1733492   0.2364853), wk =   0.0370370
        k(    3) = (   0.1000832   0.1733492   0.3941422), wk =   0.0370370
        k(    4) = (   0.1000832   0.4044815   0.0788284), wk =   0.0740741
        k(    5) = (   0.1000832   0.4044815   0.2364853), wk =   0.0740741
        k(    6) = (   0.1000832   0.4044815   0.3941422), wk =   0.0740741
        k(    7) = (   0.1000832   0.6356138   0.0788284), wk =   0.0740741
        k(    8) = (   0.1000832   0.6356138   0.2364853), wk =   0.0740741
        k(    9) = (   0.1000832   0.6356138   0.3941422), wk =   0.0740741
        k(   10) = (   0.1000832  -0.5200477   0.0788284), wk =   0.0740741
        k(   11) = (   0.1000832  -0.5200477   0.2364853), wk =   0.0740741
        k(   12) = (   0.1000832  -0.5200477   0.3941422), wk =   0.0740741
        k(   13) = (   0.1000832  -0.2889154   0.0788284), wk =   0.0740741
        k(   14) = (   0.1000832  -0.2889154   0.2364853), wk =   0.0740741
        k(   15) = (   0.1000832  -0.2889154   0.3941422), wk =   0.0740741
        k(   16) = (   0.1000832  -0.0577831   0.0788284), wk =   0.0370370
        k(   17) = (   0.1000832  -0.0577831   0.2364853), wk =   0.0370370
        k(   18) = (   0.1000832  -0.0577831   0.3941422), wk =   0.0370370
        k(   19) = (   0.3002497   0.5200477   0.0788284), wk =   0.0370370
        k(   20) = (   0.3002497   0.5200477   0.2364853), wk =   0.0370370
        k(   21) = (   0.3002497   0.5200477   0.3941422), wk =   0.0370370
        k(   22) = (   0.3002497   0.7511800   0.0788284), wk =   0.0740741
        k(   23) = (   0.3002497   0.7511800   0.2364853), wk =   0.0740741
        k(   24) = (   0.3002497   0.7511800   0.3941422), wk =   0.0740741
        k(   25) = (   0.3002497  -0.4044815   0.0788284), wk =   0.0740741
        k(   26) = (   0.3002497  -0.4044815   0.2364853), wk =   0.0740741
        k(   27) = (   0.3002497  -0.4044815   0.3941422), wk =   0.0740741
        k(   28) = (   0.3002497  -0.1733492   0.0788284), wk =   0.0370370
        k(   29) = (   0.3002497  -0.1733492   0.2364853), wk =   0.0370370
        k(   30) = (   0.3002497  -0.1733492   0.3941422), wk =   0.0370370
        k(   31) = (   0.5004161   0.8667461   0.0788284), wk =   0.0370370
        k(   32) = (   0.5004161   0.8667461   0.2364853), wk =   0.0370370
        k(   33) = (   0.5004161   0.8667461   0.3941422), wk =   0.0370370
        k(   34) = (   0.5004161  -0.2889154   0.0788284), wk =   0.0370370
        k(   35) = (   0.5004161  -0.2889154   0.2364853), wk =   0.0370370
        k(   36) = (   0.5004161  -0.2889154   0.3941422), wk =   0.0370370
     extrapolated charge   20.22749, renormalised to   24.00000

[...]

     number of scf cycles    =   6
     number of bfgs steps    =   5

     enthalpy old            =    -149.4663208180 Ry
     enthalpy new            =    -149.4663271474 Ry

     CASE: enthalpy_new < enthalpy_old

     new trust radius        =       0.0003449967 bohr
     new conv_thr            =       0.0000000100 Ry

     new unit-cell volume =    242.33731 a.u.^3 (    35.91068 Ang^3 )

[...]

ATOMIC_POSITIONS (crystal)
Ca       0.333333333   0.666666667   0.250000000
Ca       0.666666667   0.333333333   0.750000000
H        0.333333333   0.666666667   0.750000000
H        0.666666667   0.333333333   0.250000000
H        0.000000000   0.000000000   0.000000000
H        0.000000000   0.000000000   0.500000000

     Writing output data file CaH2_18GPa-blyp-1000.save
     NEW-OLD atomic charge density approx. for the potential
     NEW k-points:
        k(    1) = (   0.0982863   0.1702369   0.0783182), wk =   0.0370370
        k(    2) = (   0.0982863   0.1702369   0.2349547), wk =   0.0370370
        k(    3) = (   0.0982863   0.1702369   0.3915911), wk =   0.0370370
        k(    4) = (   0.0982863   0.3972195   0.0783182), wk =   0.0740741
        k(    5) = (   0.0982863   0.3972195   0.2349547), wk =   0.0740741
        k(    6) = (   0.0982863   0.3972195   0.3915911), wk =   0.0740741
        k(    7) = (   0.0982863   0.6242021   0.0783182), wk =   0.0740741
        k(    8) = (   0.0982863   0.6242021   0.2349547), wk =   0.0740741
        k(    9) = (   0.0982863   0.6242021   0.3915911), wk =   0.0740741
        k(   10) = (   0.0982863  -0.5107108   0.0783182), wk =   0.0740741
        k(   11) = (   0.0982863  -0.5107108   0.2349547), wk =   0.0740741
        k(   12) = (   0.0982863  -0.5107108   0.3915911), wk =   0.0740741
        k(   13) = (   0.0982863  -0.2837282   0.0783182), wk =   0.0740741
        k(   14) = (   0.0982863  -0.2837282   0.2349547), wk =   0.0740741
        k(   15) = (   0.0982863  -0.2837282   0.3915911), wk =   0.0740741
        k(   16) = (   0.0982863  -0.0567456   0.0783182), wk =   0.0370370
        k(   17) = (   0.0982863  -0.0567456   0.2349547), wk =   0.0370370
        k(   18) = (   0.0982863  -0.0567456   0.3915911), wk =   0.0370370
        k(   19) = (   0.2948590   0.5107108   0.0783182), wk =   0.0370370
        k(   20) = (   0.2948590   0.5107108   0.2349547), wk =   0.0370370
        k(   21) = (   0.2948590   0.5107108   0.3915911), wk =   0.0370370
        k(   22) = (   0.2948590   0.7376933   0.0783182), wk =   0.0740741
        k(   23) = (   0.2948590   0.7376933   0.2349547), wk =   0.0740741
        k(   24) = (   0.2948590   0.7376933   0.3915911), wk =   0.0740741
        k(   25) = (   0.2948590  -0.3972195   0.0783182), wk =   0.0740741
        k(   26) = (   0.2948590  -0.3972195   0.2349547), wk =   0.0740741
        k(   27) = (   0.2948590  -0.3972195   0.3915911), wk =   0.0740741
        k(   28) = (   0.2948590  -0.1702369   0.0783182), wk =   0.0370370
        k(   29) = (   0.2948590  -0.1702369   0.2349547), wk =   0.0370370
        k(   30) = (   0.2948590  -0.1702369   0.3915911), wk =   0.0370370
        k(   31) = (   0.4914317   0.8511846   0.0783182), wk =   0.0370370
        k(   32) = (   0.4914317   0.8511846   0.2349547), wk =   0.0370370
        k(   33) = (   0.4914317   0.8511846   0.3915911), wk =   0.0370370
        k(   34) = (   0.4914317  -0.2837282   0.0783182), wk =   0.0370370
        k(   35) = (   0.4914317  -0.2837282   0.2349547), wk =   0.0370370
        k(   36) = (   0.4914317  -0.2837282   0.3915911), wk =   0.0370370
     extrapolated charge   24.00440, renormalised to   24.00000

[...]

     Threshold (ethr) on eigenvalues was too large:
     Diagonalizing with lowered threshold

     Davidson diagonalization with overlap
     ethr =  1.54E-09,  avg # of iterations =  3.5

[...]

     bfgs converged in   7 scf cycles and   6 bfgs steps
     (criteria: energy < 0.10E-03, force < 0.10E-02, cell < 0.50E+00)

     End of BFGS Geometry Optimization

     Final enthalpy =    -149.4663273192 Ry
Begin final coordinates
     new unit-cell volume =    242.33731 a.u.^3 (    35.91068 Ang^3 )

CELL_PARAMETERS (alat=  7.15200000)
   0.847862861  -0.000000000  -0.000000000
  -0.423931430   0.734270776  -0.000000000
  -0.000000000  -0.000000000   1.064034976

ATOMIC_POSITIONS (crystal)
Ca       0.333333333   0.666666667   0.250000000
Ca       0.666666667   0.333333333   0.750000000
H        0.333333333   0.666666667   0.750000000
H        0.666666667   0.333333333   0.250000000
H        0.000000000   0.000000000   0.000000000
H        0.000000000   0.000000000   0.500000000
End final coordinates

     A final scf calculation at the relaxed structure.
     The G-vectors are recalculated for the final unit cell
     Results may differ from those at the preceding step.

     bravais-lattice index     =            4
     lattice parameter (alat)  =       7.1520  a.u.
     unit-cell volume          =     242.3373 (a.u.)^3
     number of atoms/cell      =            6
     number of atomic types    =            2
     number of electrons       =        24.00
     number of Kohn-Sham states=           12
     kinetic-energy cutoff     =     120.0000  Ry
     charge density cutoff     =     480.0000  Ry
     convergence threshold     =      1.0E-08
     mixing beta               =       0.3000
     number of iterations used =           16  local-TF  mixing
     Exchange-correlation      = BLYP ( 1 3 1 3 0)
     EXX-fraction              =        0.00

     celldm(1)=   7.152000  celldm(2)=   0.000000  celldm(3)=   1.250400
     celldm(4)=   0.000000  celldm(5)=   0.000000  celldm(6)=   0.000000

     crystal axes: (cart. coord. in units of alat)
               a(1) = (   0.847863  -0.000000  -0.000000 )
               a(2) = (  -0.423931   0.734271  -0.000000 )
               a(3) = (  -0.000000  -0.000000   1.064035 )

     reciprocal axes: (cart. coord. in units 2 pi/alat)
               b(1) = (  1.179436  0.680948  0.000000 )
               b(2) = (  0.000000  1.361895  0.000000 )
               b(3) = (  0.000000  0.000000  0.939819 )

     PseudoPot. # 1 for H  read from file:
     /home/ilia/espresso/pseudo/H.blyp-vbc.UPF
     MD5 check sum: 64d25ad537c4b939b17faee1147b797b
     Pseudo is Norm-conserving, Zval =  1.0
     Generated by new atomic code, or converted to UPF format
     Using radial grid of  243 points,  0 beta functions with:

     PseudoPot. # 2 for Ca read from file:
     /home/ilia/espresso/pseudo/Ca.blyp-sp-hgh.UPF
     MD5 check sum: 357a6b692114ea82b84239caae8ecfc0
     Pseudo is Norm-conserving, Zval = 10.0
     Generated in analytical, separable form
     Using radial grid of 1169 points,  5 beta functions with:
                l(1) =   0
                l(2) =   0
                l(3) =   1
                l(4) =   1
                l(5) =   2

     atomic species   valence    mass     pseudopotential
        H              1.00     1.00700     H ( 1.00)
        Ca            10.00    40.07800     Ca( 1.00)

     24 Sym. Ops., with inversion, found (12 have fractional translation)

   Cartesian axes

     site n.     atom                  positions (alat units)
         1           Ca  tau(   1) = (  -0.0000000   0.4895139   0.2660087  )
         2           Ca  tau(   2) = (   0.4239314   0.2447569   0.7980262  )
         3           H   tau(   3) = (  -0.0000000   0.4895139   0.7980262  )
         4           H   tau(   4) = (   0.4239314   0.2447569   0.2660087  )
         5           H   tau(   5) = (  -0.0000000   0.0000000   0.0000000  )
         6           H   tau(   6) = (   0.0000000   0.0000000   0.5320175  )

     number of k points=    36
                       cart. coord. in units 2pi/alat
        k(    1) = (   0.0982863   0.1702369   0.0783182), wk =   0.0370370
        k(    2) = (   0.0982863   0.1702369   0.2349547), wk =   0.0370370
        k(    3) = (   0.0982863   0.1702369   0.3915911), wk =   0.0370370
        k(    4) = (   0.0982863   0.3972195   0.0783182), wk =   0.0740741
        k(    5) = (   0.0982863   0.3972195   0.2349547), wk =   0.0740741
        k(    6) = (   0.0982863   0.3972195   0.3915911), wk =   0.0740741
        k(    7) = (   0.0982863   0.6242021   0.0783182), wk =   0.0740741
        k(    8) = (   0.0982863   0.6242021   0.2349547), wk =   0.0740741
        k(    9) = (   0.0982863   0.6242021   0.3915911), wk =   0.0740741
        k(   10) = (   0.0982863  -0.5107108   0.0783182), wk =   0.0740741
        k(   11) = (   0.0982863  -0.5107108   0.2349547), wk =   0.0740741
        k(   12) = (   0.0982863  -0.5107108   0.3915911), wk =   0.0740741
        k(   13) = (   0.0982863  -0.2837282   0.0783182), wk =   0.0740741
        k(   14) = (   0.0982863  -0.2837282   0.2349547), wk =   0.0740741
        k(   15) = (   0.0982863  -0.2837282   0.3915911), wk =   0.0740741
        k(   16) = (   0.0982863  -0.0567456   0.0783182), wk =   0.0370370
        k(   17) = (   0.0982863  -0.0567456   0.2349547), wk =   0.0370370
        k(   18) = (   0.0982863  -0.0567456   0.3915911), wk =   0.0370370
        k(   19) = (   0.2948590   0.5107108   0.0783182), wk =   0.0370370
        k(   20) = (   0.2948590   0.5107108   0.2349547), wk =   0.0370370
        k(   21) = (   0.2948590   0.5107108   0.3915911), wk =   0.0370370
        k(   22) = (   0.2948590   0.7376933   0.0783182), wk =   0.0740741
        k(   23) = (   0.2948590   0.7376933   0.2349547), wk =   0.0740741
        k(   24) = (   0.2948590   0.7376933   0.3915911), wk =   0.0740741
        k(   25) = (   0.2948590  -0.3972195   0.0783182), wk =   0.0740741
        k(   26) = (   0.2948590  -0.3972195   0.2349547), wk =   0.0740741
        k(   27) = (   0.2948590  -0.3972195   0.3915911), wk =   0.0740741
        k(   28) = (   0.2948590  -0.1702369   0.0783182), wk =   0.0370370
        k(   29) = (   0.2948590  -0.1702369   0.2349547), wk =   0.0370370
        k(   30) = (   0.2948590  -0.1702369   0.3915911), wk =   0.0370370
        k(   31) = (   0.4914317   0.8511846   0.0783182), wk =   0.0370370
        k(   32) = (   0.4914317   0.8511846   0.2349547), wk =   0.0370370
        k(   33) = (   0.4914317   0.8511846   0.3915911), wk =   0.0370370
        k(   34) = (   0.4914317  -0.2837282   0.0783182), wk =   0.0370370
        k(   35) = (   0.4914317  -0.2837282   0.2349547), wk =   0.0370370
        k(   36) = (   0.4914317  -0.2837282   0.3915911), wk =   0.0370370

     Largest allocated arrays     est. size (Mb)     dimensions
     Largest temporary arrays     est. size (Mb)     dimensions

     Initial potential from superposition of free atoms

     starting charge   23.98928, renormalised to   24.00000
     Starting wfc are   30 randomized atomic wfcs

     Writing output data file CaH2_18GPa-blyp-1000.save

     Self-consistent Calculation

[...]

     total energy              =    -151.11027009 Ry
     Harris-Foulkes estimate   =    -151.11027030 Ry
     estimated scf accuracy    <       0.00000067 Ry

     iteration #  9     ecut=   120.00 Ry     beta=0.30
     Davidson diagonalization with overlap
     ethr =  2.79E-09,  avg # of iterations =  2.7

     End of self-consistent calculation

[...]

          k = 0.4914-0.2837 0.3916 (  5376 PWs)   bands (ev):

   -25.7405 -25.6438  -7.8993  -7.6979  -6.2698  -5.9845  -5.7902  -5.5244
     9.4328   9.8703  11.3962  11.6671

!    total energy              =    -151.11027018 Ry
     Harris-Foulkes estimate   =    -151.11027018 Ry
     estimated scf accuracy    <          1.9E-09 Ry

     The total energy is the sum of the following terms:

     one-electron contribution =     -19.68176628 Ry
     hartree contribution      =      22.20516817 Ry
     xc contribution           =     -24.58170613 Ry
     ewald contribution        =    -129.05196595 Ry

     convergence has been achieved in   9 iterations

     Forces acting on atoms (Ry/au):

     atom    1 type  2   force =     0.00000000    0.00000000    0.00000000
     atom    2 type  2   force =    -0.00000000   -0.00000000   -0.00000000
     atom    3 type  1   force =     0.00000000    0.00000000   -0.00000000
     atom    4 type  1   force =    -0.00000000   -0.00000000    0.00000000
     atom    5 type  1   force =    -0.00000000   -0.00000000   -0.00000000
     atom    6 type  1   force =    -0.00000000   -0.00000000    0.00000000

     Total force =     0.000000     Total SCF correction =     0.000000

     entering subroutine stress ...

          total   stress  (Ry/bohr**3)                   (kbar)     P=  991.65
   0.00674135  -0.00000000   0.00000000        991.69     -0.00      0.00
  -0.00000000   0.00674135  -0.00000000         -0.00    991.69     -0.00
   0.00000000   0.00000000   0.00674067          0.00      0.00    991.59

     Writing output data file CaH2_18GPa-blyp-1000.save

     General routines

   This run was terminated on:   5:10:31  15Jun2014

   JOB DONE.