     Program PWSCF v.5.0.2 (svn rev. 9392) starts on 12Jun2014 at 15:59:39

     Current dimensions of program PWSCF are:
     Max number of different atomic species (ntypx) = 10
     Max number of k-points (npk) =  40000
     Max angular momentum in pseudopotentials (lmaxx) =  3
     Waiting for input...
     Reading input from standard input

     bravais-lattice index     =            8
     lattice parameter (alat)  =      10.5580  a.u.
     unit-cell volume          =     815.0461 (a.u.)^3
     number of atoms/cell      =           12
     number of atomic types    =            2
     number of electrons       =        48.00
     number of Kohn-Sham states=           24
     kinetic-energy cutoff     =     120.0000  Ry
     charge density cutoff     =     480.0000  Ry
     convergence threshold     =      1.0E-06
     mixing beta               =       0.3000
     number of iterations used =           16  local-TF  mixing
     Exchange-correlation      = BLYP ( 1 3 1 3 0)
     EXX-fraction              =        0.00
     nstep                     =           50

     celldm(1)=  10.558000  celldm(2)=   0.604300  celldm(3)=   1.146000
     celldm(4)=   0.000000  celldm(5)=   0.000000  celldm(6)=   0.000000

     crystal axes: (cart. coord. in units of alat)
               a(1) = (   1.000000   0.000000   0.000000 )
               a(2) = (   0.000000   0.604300   0.000000 )
               a(3) = (   0.000000   0.000000   1.146000 )

     reciprocal axes: (cart. coord. in units 2 pi/alat)
               b(1) = (  1.000000  0.000000  0.000000 )
               b(2) = (  0.000000  1.654807  0.000000 )
               b(3) = (  0.000000  0.000000  0.872600 )

     PseudoPot. # 1 for H  read from file:
     /home/ilia/espresso/pseudo/H.blyp-vbc.UPF
     MD5 check sum: 64d25ad537c4b939b17faee1147b797b
     Pseudo is Norm-conserving, Zval =  1.0
     Generated by new atomic code, or converted to UPF format
     Using radial grid of  243 points,  0 beta functions with:

     PseudoPot. # 2 for Ca read from file:
     /home/ilia/espresso/pseudo/Ca.blyp-sp-hgh.UPF
     MD5 check sum: 357a6b692114ea82b84239caae8ecfc0
     Pseudo is Norm-conserving, Zval = 10.0
     Generated in analytical, separable form
     Using radial grid of 1169 points,  5 beta functions with:
                l(1) =   0
                l(2) =   0
                l(3) =   1
                l(4) =   1
                l(5) =   2

     atomic species   valence    mass     pseudopotential
        H              1.00     1.00700     H ( 1.00)
        Ca            10.00    40.07800     Ca( 1.00)

     No symmetry found
          (note:  1 additional sym.ops. were found but ignored
           their fractional translations are incommensurate with FFT grid)

   Cartesian axes

     site n.     atom                  positions (alat units)
         1           Ca  tau(   1) = (   0.2400000   0.1510750   0.1259454  )
         2           Ca  tau(   2) = (   0.2600000  -0.1510750   0.6989454  )
         3           Ca  tau(   3) = (   0.7400000   0.1510750   0.4470546  )
         4           Ca  tau(   4) = (  -0.2400000  -0.1510750  -0.1259454  )
         5           H   tau(   5) = (   0.3557000   0.1510750   0.4887690  )
         6           H   tau(   6) = (   0.1443000  -0.1510750   1.0617690  )
         7           H   tau(   7) = (   0.8557000   0.1510750   0.0842310  )
         8           H   tau(   8) = (  -0.3557000  -0.1510750  -0.4922070  )
         9           H   tau(   9) = (   0.9754000   0.1510750   0.7752690  )
        10           H   tau(  10) = (  -0.4754000  -0.1510750   1.3482690  )
        11           H   tau(  11) = (   1.4754000   0.1510750  -0.1988310  )
        12           H   tau(  12) = (  -0.9754000  -0.1510750  -0.7752690  )

     number of k points=    48
                       cart. coord. in units 2pi/alat
        k(    1) = (   0.1250000   0.1379006   0.1090750), wk =   0.0416667
        k(    2) = (   0.1250000   0.1379006   0.3272251), wk =   0.0416667
        k(    3) = (   0.1250000   0.4137018   0.1090750), wk =   0.0416667
        k(    4) = (   0.1250000   0.4137018   0.3272251), wk =   0.0416667
        k(    5) = (   0.1250000   0.6895030   0.1090750), wk =   0.0416667
        k(    6) = (   0.1250000   0.6895030   0.3272251), wk =   0.0416667
        k(    7) = (   0.3750000   0.1379006   0.1090750), wk =   0.0416667
        k(    8) = (   0.3750000   0.1379006   0.3272251), wk =   0.0416667
        k(    9) = (   0.3750000   0.4137018   0.1090750), wk =   0.0416667
        k(   10) = (   0.3750000   0.4137018   0.3272251), wk =   0.0416667
        k(   11) = (   0.3750000   0.6895030   0.1090750), wk =   0.0416667
        k(   12) = (   0.3750000   0.6895030   0.3272251), wk =   0.0416667
        k(   13) = (  -0.1250000  -0.1379006   0.1090750), wk =   0.0416667
        k(   14) = (  -0.1250000   0.1379006  -0.1090750), wk =   0.0416667
        k(   15) = (   0.1250000  -0.1379006  -0.1090750), wk =   0.0416667
        k(   16) = (  -0.1250000  -0.1379006   0.3272251), wk =   0.0416667
        k(   17) = (  -0.1250000   0.1379006  -0.3272251), wk =   0.0416667
        k(   18) = (   0.1250000  -0.1379006  -0.3272251), wk =   0.0416667
        k(   19) = (  -0.1250000  -0.4137018   0.1090750), wk =   0.0416667
        k(   20) = (  -0.1250000   0.4137018  -0.1090750), wk =   0.0416667
        k(   21) = (   0.1250000  -0.4137018  -0.1090750), wk =   0.0416667
        k(   22) = (  -0.1250000  -0.4137018   0.3272251), wk =   0.0416667
        k(   23) = (  -0.1250000   0.4137018  -0.3272251), wk =   0.0416667
        k(   24) = (   0.1250000  -0.4137018  -0.3272251), wk =   0.0416667
        k(   25) = (  -0.1250000  -0.6895030   0.1090750), wk =   0.0416667
        k(   26) = (  -0.1250000   0.6895030  -0.1090750), wk =   0.0416667
        k(   27) = (   0.1250000  -0.6895030  -0.1090750), wk =   0.0416667
        k(   28) = (  -0.1250000  -0.6895030   0.3272251), wk =   0.0416667
        k(   29) = (  -0.1250000   0.6895030  -0.3272251), wk =   0.0416667
        k(   30) = (   0.1250000  -0.6895030  -0.3272251), wk =   0.0416667
        k(   31) = (  -0.3750000  -0.1379006   0.1090750), wk =   0.0416667
        k(   32) = (  -0.3750000   0.1379006  -0.1090750), wk =   0.0416667
        k(   33) = (   0.3750000  -0.1379006  -0.1090750), wk =   0.0416667
        k(   34) = (  -0.3750000  -0.1379006   0.3272251), wk =   0.0416667
        k(   35) = (  -0.3750000   0.1379006  -0.3272251), wk =   0.0416667
        k(   36) = (   0.3750000  -0.1379006  -0.3272251), wk =   0.0416667
        k(   37) = (  -0.3750000  -0.4137018   0.1090750), wk =   0.0416667
        k(   38) = (  -0.3750000   0.4137018  -0.1090750), wk =   0.0416667
        k(   39) = (   0.3750000  -0.4137018  -0.1090750), wk =   0.0416667
        k(   40) = (  -0.3750000  -0.4137018   0.3272251), wk =   0.0416667
        k(   41) = (  -0.3750000   0.4137018  -0.3272251), wk =   0.0416667
        k(   42) = (   0.3750000  -0.4137018  -0.3272251), wk =   0.0416667
        k(   43) = (  -0.3750000  -0.6895030   0.1090750), wk =   0.0416667
        k(   44) = (  -0.3750000   0.6895030  -0.1090750), wk =   0.0416667
        k(   45) = (   0.3750000  -0.6895030  -0.1090750), wk =   0.0416667
        k(   46) = (  -0.3750000  -0.6895030   0.3272251), wk =   0.0416667
        k(   47) = (  -0.3750000   0.6895030  -0.3272251), wk =   0.0416667
        k(   48) = (   0.3750000  -0.6895030  -0.3272251), wk =   0.0416667

     Largest allocated arrays     est. size (Mb)     dimensions
     Largest temporary arrays     est. size (Mb)     dimensions

     Initial potential from superposition of free atoms

     starting charge   47.97855, renormalised to   48.00000
     Starting wfc are   60 randomized atomic wfcs

     Self-consistent Calculation

     iteration #  1     ecut=   120.00 Ry     beta=0.30
     Davidson diagonalization with overlap
     ethr =  1.00E-02,  avg # of iterations =  2.0

     total energy              =    -303.21088493 Ry
     Harris-Foulkes estimate   =    -303.27032374 Ry
     estimated scf accuracy    <       0.53593020 Ry

[...]

     End of self-consistent calculation

          k = 0.1250 0.1379 0.1091 ( 18078 PWs)   bands (ev):

   -33.1578 -33.1077 -33.0935 -33.0770 -13.8691 -13.7675 -13.7210 -13.5900
   -13.5139 -13.4786 -13.4723 -13.4122 -13.3941 -13.3744 -13.3625 -13.3587
     1.0187   3.4034   3.8456   4.4213   4.8345   5.0437   5.2978   6.0954

[...]

          k =-0.1250-0.1379 0.1091 ( 18078 PWs)   bands (ev):

[...]

!    total energy              =    -303.13443646 Ry
     Harris-Foulkes estimate   =    -303.13443611 Ry
     estimated scf accuracy    <       0.00000047 Ry

     The total energy is the sum of the following terms:

     one-electron contribution =    -101.25594857 Ry
     hartree contribution      =      62.12990863 Ry
     xc contribution           =     -47.36989031 Ry
     ewald contribution        =    -216.63850622 Ry

     convergence has been achieved in   8 iterations

     Forces acting on atoms (Ry/au):

     atom    1 type  2   force =     0.00192974   -0.00111383    0.00641826
     atom    2 type  2   force =    -0.00226396   -0.00001564    0.00474684
     atom    3 type  2   force =     0.00295142    0.00001407   -0.00695142
     atom    4 type  2   force =    -0.00269273    0.00111628   -0.00635846
     atom    5 type  1   force =    -0.00139483   -0.00000095    0.00047077
     atom    6 type  1   force =     0.00116865    0.00000044   -0.00014409
     atom    7 type  1   force =    -0.00119894   -0.00000082   -0.00012677
     atom    8 type  1   force =     0.00090204    0.00000072    0.00442653
     atom    9 type  1   force =    -0.00070270   -0.00001252    0.00351160
     atom   10 type  1   force =     0.00056835    0.00001209    0.00344350
     atom   11 type  1   force =    -0.00006604   -0.00001247   -0.00600610
     atom   12 type  1   force =     0.00079901    0.00001263   -0.00343067

     Total force =     0.016619     Total SCF correction =     0.002522
     SCF correction compared to forces is large: reduce conv_thr to get better values

     entering subroutine stress ...

          total   stress  (Ry/bohr**3)                   (kbar)     P=  121.57
   0.00078626  -0.00000000  -0.00000407        115.66     -0.00     -0.60
  -0.00000000   0.00083857   0.00000006         -0.00    123.36      0.01
  -0.00000407   0.00000006   0.00085433         -0.60      0.01    125.68

     BFGS Geometry Optimization

     number of scf cycles    =   1
     number of bfgs steps    =   0

     enthalpy new            =    -302.0263220923 Ry

     new trust radius        =       0.0818392595 bohr
     new conv_thr            =       0.0000010000 Ry

     new unit-cell volume =    782.88530 a.u.^3 (   116.01163 Ang^3 )

CELL_PARAMETERS (alat= 10.55800000)
   0.985667245  -0.000000013  -0.000101636
  -0.000000008   0.596428960   0.000000937
  -0.000116475   0.000001777   1.131524919

ATOMIC_POSITIONS (crystal)
Ca       0.240182775   0.250000000   0.110430458    1   0   1
Ca       0.259785569  -0.250000000   0.610292318    1   0   1
[...]
     new conv_thr            =       0.0000000100 Ry

     new unit-cell volume =    749.53707 a.u.^3 (   111.06993 Ang^3 )

[...]

ATOMIC_POSITIONS (crystal)
Ca       0.244337470   0.250000005   0.113010454    1   0   1
Ca       0.255521921  -0.249999993   0.612876261    1   0   1
Ca       0.744480830   0.249999984   0.387115916    1   0   1
Ca      -0.244345631  -0.250000011  -0.113001721    1   0   1
H        0.348775540   0.249999976   0.429112913    1   0   1
H        0.151293081  -0.250000039   0.929040168    1   0   1
H        0.848703653   0.250000036   0.070936828    1   0   1
H       -0.348769750  -0.249999961  -0.429170484    1   0   1
H        0.971222373   0.250000047   0.685880320    1   0   1
H       -0.471097813  -0.249999977   1.185779947    1   0   1
H        1.471097623   0.249999976  -0.185709234    1   0   1
H       -0.971219298  -0.250000043  -0.685871367    1   0   1

     Writing output data file CaH2_ambient.save
     NEW-OLD atomic charge density approx. for the potential
     NEW k-points:
        k(    1) = (   0.1310366   0.1410117   0.1106089), wk =   0.0416667
        k(    2) = (   0.1309595   0.1410082   0.3318352), wk =   0.0416667
        k(    3) = (   0.1310361   0.4230398   0.1106102), wk =   0.0416667
        k(    4) = (   0.1309590   0.4230363   0.3318365), wk =   0.0416667
        k(    5) = (   0.1310356   0.7050680   0.1106115), wk =   0.0416667
        k(    6) = (   0.1309585   0.7050644   0.3318378), wk =   0.0416667
        k(    7) = (   0.3931875   0.1410105   0.1105990), wk =   0.0416667
        k(    8) = (   0.3931104   0.1410069   0.3318253), wk =   0.0416667
        k(    9) = (   0.3931870   0.4230386   0.1106003), wk =   0.0416667
        k(   10) = (   0.3931099   0.4230351   0.3318266), wk =   0.0416667
        k(   11) = (   0.3931865   0.7050668   0.1106016), wk =   0.0416667
        k(   12) = (   0.3931094   0.7050632   0.3318279), wk =   0.0416667
        k(   13) = (  -0.1311138  -0.1410152   0.1106175), wk =   0.0416667
        k(   14) = (  -0.1310371   0.1410164  -0.1106076), wk =   0.0416667
        k(   15) = (   0.1311143  -0.1410129  -0.1106188), wk =   0.0416667
        k(   16) = (  -0.1311909  -0.1410188   0.3318438), wk =   0.0416667
        k(   17) = (  -0.1309600   0.1410200  -0.3318339), wk =   0.0416667
        k(   18) = (   0.1311914  -0.1410094  -0.3318451), wk =   0.0416667
        k(   19) = (  -0.1311133  -0.4230434   0.1106162), wk =   0.0416667
        k(   20) = (  -0.1310376   0.4230446  -0.1106063), wk =   0.0416667
        k(   21) = (   0.1311148  -0.4230410  -0.1106201), wk =   0.0416667
        k(   22) = (  -0.1311904  -0.4230469   0.3318425), wk =   0.0416667
        k(   23) = (  -0.1309605   0.4230481  -0.3318326), wk =   0.0416667
        k(   24) = (   0.1311919  -0.4230375  -0.3318464), wk =   0.0416667
        k(   25) = (  -0.1311128  -0.7050715   0.1106149), wk =   0.0416667
        k(   26) = (  -0.1310381   0.7050727  -0.1106050), wk =   0.0416667
        k(   27) = (   0.1311153  -0.7050692  -0.1106213), wk =   0.0416667
        k(   28) = (  -0.1311899  -0.7050750   0.3318412), wk =   0.0416667
        k(   29) = (  -0.1309610   0.7050763  -0.3318314), wk =   0.0416667
        k(   30) = (   0.1311924  -0.7050657  -0.3318477), wk =   0.0416667
        k(   31) = (  -0.3932646  -0.1410140   0.1106274), wk =   0.0416667
        k(   32) = (  -0.3931880   0.1410177  -0.1105977), wk =   0.0416667
        k(   33) = (   0.3932651  -0.1410141  -0.1106286), wk =   0.0416667
        k(   34) = (  -0.3933418  -0.1410176   0.3318537), wk =   0.0416667
        k(   35) = (  -0.3931109   0.1410212  -0.3318240), wk =   0.0416667
        k(   36) = (   0.3933423  -0.1410106  -0.3318550), wk =   0.0416667
        k(   37) = (  -0.3932641  -0.4230422   0.1106261), wk =   0.0416667
        k(   38) = (  -0.3931885   0.4230458  -0.1105964), wk =   0.0416667
        k(   39) = (   0.3932656  -0.4230423  -0.1106299), wk =   0.0416667
        k(   40) = (  -0.3933413  -0.4230457   0.3318524), wk =   0.0416667
        k(   41) = (  -0.3931114   0.4230493  -0.3318228), wk =   0.0416667
        k(   42) = (   0.3933428  -0.4230387  -0.3318563), wk =   0.0416667
        k(   43) = (  -0.3932636  -0.7050703   0.1106248), wk =   0.0416667
        k(   44) = (  -0.3931890   0.7050739  -0.1105951), wk =   0.0416667
        k(   45) = (   0.3932662  -0.7050704  -0.1106312), wk =   0.0416667
        k(   46) = (  -0.3933408  -0.7050738   0.3318511), wk =   0.0416667
        k(   47) = (  -0.3931119   0.7050775  -0.3318215), wk =   0.0416667
        k(   48) = (   0.3933433  -0.7050669  -0.3318576), wk =   0.0416667
     extrapolated charge   47.99982, renormalised to   48.00000

[...]

     Threshold (ethr) on eigenvalues was too large:
     Diagonalizing with lowered threshold

     Davidson diagonalization with overlap
     ethr =  1.68E-09,  avg # of iterations =  4.1

[...]

     Total force =     0.001964     Total SCF correction =     0.000896
     SCF correction compared to forces is large: reduce conv_thr to get better values

[...]

     bfgs converged in  43 scf cycles and  33 bfgs steps
     (criteria: energy < 0.10E-03, force < 0.10E-02, cell < 0.50E+00)

     End of BFGS Geometry Optimization

     Final enthalpy =    -302.0471710806 Ry
Begin final coordinates
     new unit-cell volume =    749.53707 a.u.^3 (   111.06993 Ang^3 )

CELL_PARAMETERS (alat= 10.55800000)
   0.953649266   0.000001696   0.000332459
   0.000002730   0.590957578   0.000009448
   0.000042617  -0.000005174   1.130064323

ATOMIC_POSITIONS (crystal)
Ca       0.244337470   0.250000005   0.113010454    1   0   1
Ca       0.255521921  -0.249999993   0.612876261    1   0   1
Ca       0.744480830   0.249999984   0.387115916    1   0   1
Ca      -0.244345631  -0.250000011  -0.113001721    1   0   1
H        0.348775540   0.249999976   0.429112913    1   0   1
H        0.151293081  -0.250000039   0.929040168    1   0   1
H        0.848703653   0.250000036   0.070936828    1   0   1
H       -0.348769750  -0.249999961  -0.429170484    1   0   1
H        0.971222373   0.250000047   0.685880320    1   0   1
H       -0.471097813  -0.249999977   1.185779947    1   0   1
H        1.471097623   0.249999976  -0.185709234    1   0   1
H       -0.971219298  -0.250000043  -0.685871367    1   0   1
End final coordinates

     A final scf calculation at the relaxed structure.
     The G-vectors are recalculated for the final unit cell
     Results may differ from those at the preceding step.

     bravais-lattice index     =            8
     lattice parameter (alat)  =      10.5580  a.u.
     unit-cell volume          =     749.5371 (a.u.)^3
     number of atoms/cell      =           12
     number of atomic types    =            2
     number of electrons       =        48.00
     number of Kohn-Sham states=           24
     kinetic-energy cutoff     =     120.0000  Ry
     charge density cutoff     =     480.0000  Ry
     convergence threshold     =      1.0E-08
     mixing beta               =       0.3000
     number of iterations used =           16  local-TF  mixing
     Exchange-correlation      = BLYP ( 1 3 1 3 0)
     EXX-fraction              =        0.00

     celldm(1)=  10.558000  celldm(2)=   0.604300  celldm(3)=   1.146000
     celldm(4)=   0.000000  celldm(5)=   0.000000  celldm(6)=   0.000000

     crystal axes: (cart. coord. in units of alat)
               a(1) = (   0.953649   0.000002   0.000332 )
               a(2) = (   0.000003   0.590958   0.000009 )
               a(3) = (   0.000043  -0.000005   1.130064 )

     reciprocal axes: (cart. coord. in units 2 pi/alat)
               b(1) = (  1.048604 -0.000005 -0.000040 )
               b(2) = ( -0.000003  1.692169  0.000008 )
               b(3) = ( -0.000308 -0.000014  0.884905 )

     PseudoPot. # 1 for H  read from file:
     /home/ilia/espresso/pseudo/H.blyp-vbc.UPF
     MD5 check sum: 64d25ad537c4b939b17faee1147b797b
     Pseudo is Norm-conserving, Zval =  1.0
     Generated by new atomic code, or converted to UPF format
     Using radial grid of  243 points,  0 beta functions with:

     PseudoPot. # 2 for Ca read from file:
     /home/ilia/espresso/pseudo/Ca.blyp-sp-hgh.UPF
     MD5 check sum: 357a6b692114ea82b84239caae8ecfc0
     Pseudo is Norm-conserving, Zval = 10.0
     Generated in analytical, separable form
     Using radial grid of 1169 points,  5 beta functions with:
                l(1) =   0
                l(2) =   0
                l(3) =   1
                l(4) =   1
                l(5) =   2

     atomic species   valence    mass     pseudopotential
        H              1.00     1.00700     H ( 1.00)
        Ca            10.00    40.07800     Ca( 1.00)

     No symmetry found
          (note:  1 additional sym.ops. were found but ignored
           their fractional translations are incommensurate with FFT grid)

   Cartesian axes

     site n.     atom                  positions (alat units)
         1           Ca  tau(   1) = (   0.2330177   0.1477392   0.1277927  )
         2           Ca  tau(   2) = (   0.2437037  -0.1477421   0.6926722  )
         3           Ca  tau(   3) = (   0.7099908   0.1477386   0.4377158  )
         4           Ca  tau(   4) = (  -0.2330255  -0.1477392  -0.1277828  )
         5           H   tau(   5) = (   0.3326285   0.1477378   0.4850435  )
         6           H   tau(   6) = (   0.1443194  -0.1477440   1.0499231  )
         7           H   tau(   7) = (   0.8093693   0.1477405   0.0804477  )
         8           H   tau(   8) = (  -0.3326230  -0.1477377  -0.4851086  )
         9           H   tau(   9) = (   0.9262354   0.1477375   0.7754141  )
        10           H   tau(  10) = (  -0.4492122  -0.1477463   1.3398486  )
        11           H   tau(  11) = (   1.4029039   0.1477428  -0.2093719  )
        12           H   tau(  12) = (  -0.9262325  -0.1477375  -0.7754040  )

     number of k points=    48
                       cart. coord. in units 2pi/alat
        k(    1) = (   0.1310366   0.1410117   0.1106089), wk =   0.0416667
        k(    2) = (   0.1309595   0.1410082   0.3318352), wk =   0.0416667
        k(    3) = (   0.1310361   0.4230398   0.1106102), wk =   0.0416667
        k(    4) = (   0.1309590   0.4230363   0.3318365), wk =   0.0416667
        k(    5) = (   0.1310356   0.7050680   0.1106115), wk =   0.0416667
        k(    6) = (   0.1309585   0.7050644   0.3318378), wk =   0.0416667
        k(    7) = (   0.3931875   0.1410105   0.1105990), wk =   0.0416667
        k(    8) = (   0.3931104   0.1410069   0.3318253), wk =   0.0416667
        k(    9) = (   0.3931870   0.4230386   0.1106003), wk =   0.0416667
        k(   10) = (   0.3931099   0.4230351   0.3318266), wk =   0.0416667
        k(   11) = (   0.3931865   0.7050668   0.1106016), wk =   0.0416667
        k(   12) = (   0.3931094   0.7050632   0.3318279), wk =   0.0416667
        k(   13) = (  -0.1311138  -0.1410152   0.1106175), wk =   0.0416667
        k(   14) = (  -0.1310371   0.1410164  -0.1106076), wk =   0.0416667
        k(   15) = (   0.1311143  -0.1410129  -0.1106188), wk =   0.0416667
        k(   16) = (  -0.1311909  -0.1410188   0.3318438), wk =   0.0416667
        k(   17) = (  -0.1309600   0.1410200  -0.3318339), wk =   0.0416667
        k(   18) = (   0.1311914  -0.1410094  -0.3318451), wk =   0.0416667
        k(   19) = (  -0.1311133  -0.4230434   0.1106162), wk =   0.0416667
        k(   20) = (  -0.1310376   0.4230446  -0.1106063), wk =   0.0416667
        k(   21) = (   0.1311148  -0.4230410  -0.1106201), wk =   0.0416667
        k(   22) = (  -0.1311904  -0.4230469   0.3318425), wk =   0.0416667
        k(   23) = (  -0.1309605   0.4230481  -0.3318326), wk =   0.0416667
        k(   24) = (   0.1311919  -0.4230375  -0.3318464), wk =   0.0416667
        k(   25) = (  -0.1311128  -0.7050715   0.1106149), wk =   0.0416667
        k(   26) = (  -0.1310381   0.7050727  -0.1106050), wk =   0.0416667
        k(   27) = (   0.1311153  -0.7050692  -0.1106213), wk =   0.0416667
        k(   28) = (  -0.1311899  -0.7050750   0.3318412), wk =   0.0416667
        k(   29) = (  -0.1309610   0.7050763  -0.3318314), wk =   0.0416667
        k(   30) = (   0.1311924  -0.7050657  -0.3318477), wk =   0.0416667
        k(   31) = (  -0.3932646  -0.1410140   0.1106274), wk =   0.0416667
        k(   32) = (  -0.3931880   0.1410177  -0.1105977), wk =   0.0416667
        k(   33) = (   0.3932651  -0.1410141  -0.1106286), wk =   0.0416667
        k(   34) = (  -0.3933418  -0.1410176   0.3318537), wk =   0.0416667
        k(   35) = (  -0.3931109   0.1410212  -0.3318240), wk =   0.0416667
        k(   36) = (   0.3933423  -0.1410106  -0.3318550), wk =   0.0416667
        k(   37) = (  -0.3932641  -0.4230422   0.1106261), wk =   0.0416667
        k(   38) = (  -0.3931885   0.4230458  -0.1105964), wk =   0.0416667
        k(   39) = (   0.3932656  -0.4230423  -0.1106299), wk =   0.0416667
        k(   40) = (  -0.3933413  -0.4230457   0.3318524), wk =   0.0416667
        k(   41) = (  -0.3931114   0.4230493  -0.3318228), wk =   0.0416667
        k(   42) = (   0.3933428  -0.4230387  -0.3318563), wk =   0.0416667
        k(   43) = (  -0.3932636  -0.7050703   0.1106248), wk =   0.0416667
        k(   44) = (  -0.3931890   0.7050739  -0.1105951), wk =   0.0416667
        k(   45) = (   0.3932662  -0.7050704  -0.1106312), wk =   0.0416667
        k(   46) = (  -0.3933408  -0.7050738   0.3318511), wk =   0.0416667
        k(   47) = (  -0.3931119   0.7050775  -0.3318215), wk =   0.0416667
        k(   48) = (   0.3933433  -0.7050669  -0.3318576), wk =   0.0416667

     Largest allocated arrays     est. size (Mb)     dimensions
     Largest temporary arrays     est. size (Mb)     dimensions

     Initial potential from superposition of free atoms

     starting charge   47.97855, renormalised to   48.00000
     Starting wfc are   60 randomized atomic wfcs

     Writing output data file CaH2_ambient.save

     Self-consistent Calculation

[...]

     total energy              =    -303.06399736 Ry
     Harris-Foulkes estimate   =    -303.06399737 Ry
     estimated scf accuracy    <       0.00000003 Ry

     iteration # 15     ecut=   120.00 Ry     beta=0.30
     Davidson diagonalization with overlap
     ethr =  6.20E-11,  avg # of iterations =  2.0

     End of self-consistent calculation

[...]

          k =-0.3931 0.7051-0.3318 ( 16655 PWs)   bands (ev):

[...]

          k = 0.3933-0.7051-0.3319 ( 16657 PWs)   bands (ev):

   -32.0212 -32.0157 -31.9954 -31.9937 -12.8842 -12.8749 -12.8071 -12.7958
   -12.5690 -12.5403 -12.5096 -12.4957 -12.3763 -12.3547 -12.3290 -12.3192
     4.3771   4.7381   4.8847   5.0579   5.4790   5.5276   5.6165   5.6525

!    total energy              =    -303.06399736 Ry
     Harris-Foulkes estimate   =    -303.06399736 Ry
     estimated scf accuracy    <          5.9E-10 Ry

     The total energy is the sum of the following terms:

     one-electron contribution =     -91.77653580 Ry
     hartree contribution      =      59.24780547 Ry
     xc contribution           =     -47.62769656 Ry
     ewald contribution        =    -222.90757048 Ry

     convergence has been achieved in  15 iterations

     Forces acting on atoms (Ry/au):

     atom    1 type  2   force =     0.00027638   -0.00002682   -0.00002593
     atom    2 type  2   force =     0.00014746    0.00003066    0.00030299
     atom    3 type  2   force =    -0.00012913   -0.00003071   -0.00032236
     atom    4 type  2   force =    -0.00028925    0.00002725   -0.00002538
     atom    5 type  1   force =    -0.00021311    0.00000142   -0.00012750
     atom    6 type  1   force =     0.00018766    0.00000188    0.00000955
     atom    7 type  1   force =    -0.00018318   -0.00000198    0.00002527
     atom    8 type  1   force =     0.00020472   -0.00000153    0.00023514
     atom    9 type  1   force =     0.00002637   -0.00000063    0.00034937
     atom   10 type  1   force =    -0.00017339    0.00000029    0.00049418
     atom   11 type  1   force =     0.00017378   -0.00000038   -0.00055184
     atom   12 type  1   force =    -0.00002831    0.00000053   -0.00036350

     Total force =     0.001220     Total SCF correction =     0.000055

     entering subroutine stress ...

          total   stress  (Ry/bohr**3)                   (kbar)     P=  198.38
   0.00134252   0.00000001  -0.00000203        197.49      0.00     -0.30
   0.00000001   0.00135087  -0.00000006          0.00    198.72     -0.01
  -0.00000203  -0.00000006   0.00135222         -0.30     -0.01    198.92

     Writing output data file CaH2_ambient.save

     General routines

   This run was terminated on:   8:13:20  13Jun2014

   JOB DONE.