     Program PWSCF v.5.0.2 (svn rev. 9392) starts on  3Jun2014 at 17:58:19

     Current dimensions of program PWSCF are:
     Max number of different atomic species (ntypx) = 10
     Max number of k-points (npk) =  40000
     Max angular momentum in pseudopotentials (lmaxx) =  3
     Waiting for input...
     Reading input from standard input

     bravais-lattice index     =            8
     lattice parameter (alat)  =      11.2803  a.u.
     unit-cell volume          =     994.0292 (a.u.)^3
     number of atoms/cell      =           12
     number of atomic types    =            2
     number of electrons       =        48.00
     number of Kohn-Sham states=           24
     kinetic-energy cutoff     =      40.0000  Ry
     charge density cutoff     =     160.0000  Ry
     convergence threshold     =      1.0E-06
     mixing beta               =       0.3000
     number of iterations used =           16  local-TF  mixing
     Exchange-correlation      = PBE ( 1 4 3 4 0)
     EXX-fraction              =        0.00
     nstep                     =           50

     celldm(1)=  11.280300  celldm(2)=   0.604300  celldm(3)=   1.146000
     celldm(4)=   0.000000  celldm(5)=   0.000000  celldm(6)=   0.000000

     crystal axes: (cart. coord. in units of alat)
               a(1) = (   1.000000   0.000000   0.000000 )
               a(2) = (   0.000000   0.604300   0.000000 )
               a(3) = (   0.000000   0.000000   1.146000 )

     reciprocal axes: (cart. coord. in units 2 pi/alat)
               b(1) = (  1.000000  0.000000  0.000000 )
               b(2) = (  0.000000  1.654807  0.000000 )
               b(3) = (  0.000000  0.000000  0.872600 )

     PseudoPot. # 1 for H  read from file:
     /home/ilia/espresso/pseudo/H.pbe-sp-mt.ncpp
     MD5 check sum: 7a641936b52ccecd26bd1ad87cca5aed
     Pseudo is Norm-conserving, Zval =  1.0
     Generated by old ld1 code (numerical format)
     Using radial grid of 1076 points,  0 beta functions with:

     PseudoPot. # 2 for Ca read from file:
     /home/ilia/espresso/pseudo/Ca.pbe-sp-mt_ion2.ncpp
     MD5 check sum: 4bcd670d05521f7b178fdf0a334578ab
     Pseudo is Norm-conserving, Zval = 10.0
     Generated by old ld1 code (numerical format)
     Using radial grid of 1153 points,  1 beta functions with:
                l(1) =   1

     atomic species   valence    mass     pseudopotential
        H              1.00     1.00700     H ( 1.00)
        Ca            10.00    40.07800     Ca( 1.00)

     No symmetry found
          (note:  1 additional sym.ops. were found but ignored
           their fractional translations are incommensurate with FFT grid)

   Cartesian axes

     site n.     atom                  positions (alat units)
         1           Ca  tau(   1) = (   0.2400000   0.1510750   0.1259454  )
         2           Ca  tau(   2) = (   0.2600000  -0.1510750   0.6989454  )
         3           Ca  tau(   3) = (   0.7400000   0.1510750   0.4470546  )
         4           Ca  tau(   4) = (  -0.2400000  -0.1510750  -0.1259454  )
         5           H   tau(   5) = (   0.3557000   0.1510750   0.4887690  )
         6           H   tau(   6) = (   0.1443000  -0.1510750   1.0617690  )
         7           H   tau(   7) = (   0.8557000   0.1510750   0.0842310  )
         8           H   tau(   8) = (  -0.3557000  -0.1510750  -0.4922070  )
         9           H   tau(   9) = (   0.9754000   0.1510750   0.7752690  )
        10           H   tau(  10) = (  -0.4754000  -0.1510750   1.3482690  )
        11           H   tau(  11) = (   1.4754000   0.1510750  -0.1988310  )
        12           H   tau(  12) = (  -0.9754000  -0.1510750  -0.7752690  )

     number of k points=   108

     Number of k-points >= 100: set verbosity='high' to print them.

     Largest allocated arrays     est. size (Mb)     dimensions
     Largest temporary arrays     est. size (Mb)     dimensions

     Initial potential from superposition of free atoms

     starting charge   39.99992, renormalised to   48.00000
     Starting wfc are   24 randomized atomic wfcs

     Self-consistent Calculation

     iteration #  1     ecut=    40.00 Ry     beta=0.30
     Davidson diagonalization with overlap
     ethr =  1.00E-02,  avg # of iterations =  2.0

     total energy              =    -306.47248621 Ry
     Harris-Foulkes estimate   =    -308.75457630 Ry
     estimated scf accuracy    <      11.56521712 Ry

[...]

     End of self-consistent calculation

     Number of k-points >= 100: set verbosity='high' to print the bands.

!    total energy              =    -303.05150952 Ry
     Harris-Foulkes estimate   =    -303.05150979 Ry
     estimated scf accuracy    <       0.00000075 Ry

     The total energy is the sum of the following terms:

     one-electron contribution =    -121.74451130 Ry
     hartree contribution      =      68.07615896 Ry
     xc contribution           =     -46.61644453 Ry
     ewald contribution        =    -202.76671266 Ry

     convergence has been achieved in  10 iterations

     Forces acting on atoms (Ry/au):

     atom    1 type  2   force =    -0.00033836   -0.00114419   -0.00043883
     atom    2 type  2   force =    -0.00161341    0.00070798   -0.00142378
     atom    3 type  2   force =     0.00197308   -0.00070823   -0.00060445
     atom    4 type  2   force =    -0.00015704    0.00114508    0.00071155
     atom    5 type  1   force =    -0.00046958    0.00000139    0.00084641
     atom    6 type  1   force =     0.00029097   -0.00000126    0.00024858
     atom    7 type  1   force =    -0.00023970    0.00000111   -0.00049480
     atom    8 type  1   force =     0.00007765   -0.00000159    0.00326895
     atom    9 type  1   force =    -0.00011854    0.00000033    0.00001349
     atom   10 type  1   force =    -0.00009196   -0.00000187   -0.00002380
     atom   11 type  1   force =     0.00055668    0.00000174   -0.00216227
     atom   12 type  1   force =     0.00013020   -0.00000048    0.00005894

     Total force =     0.005519     Total SCF correction =     0.000252

     entering subroutine stress ...

          total   stress  (Ry/bohr**3)                   (kbar)     P=    9.75
   0.00006905   0.00000003  -0.00000125         10.16      0.00     -0.18
   0.00000003   0.00006412   0.00000001          0.00      9.43      0.00
  -0.00000125   0.00000001   0.00006562         -0.18      0.00      9.65

     BFGS Geometry Optimization

     number of scf cycles    =   1
     number of bfgs steps    =   0

     enthalpy new            =    -303.0515095237 Ry

     new trust radius        =       0.0108876686 bohr
     new conv_thr            =       0.0000010000 Ry

     new unit-cell volume =    998.97770 a.u.^3 (   148.03322 Ang^3 )

CELL_PARAMETERS (alat= 11.28030000)
   1.001726369   0.000000735  -0.000031358
   0.000000444   0.605268737   0.000000214
  -0.000035937   0.000000406   1.147880016

ATOMIC_POSITIONS (crystal)
Ca       0.239970004   0.249832148   0.109866054
Ca       0.259856971  -0.249896140   0.609789862
Ca       0.740174914   0.249896103   0.390053242
Ca      -0.240013921  -0.249832018  -0.109844957
H        0.355658372   0.250000203   0.426565475
H        0.144325795  -0.250000185   0.926519229
H        0.855678751   0.250000162   0.073461724
H       -0.355693117  -0.250000233  -0.429247127
H        0.975389492   0.250000049   0.676501044
H       -0.475408152  -0.250000274   1.176498159
H        1.475449350   0.250000255  -0.173667265
H       -0.975388458  -0.250000070  -0.676495440

     Writing output data file CaH2_ambient.save
     NEW-OLD atomic charge density approx. for the potential
     NEW k-points: (use verbosity='high' to print them)
     extrapolated charge   48.19814, renormalised to   48.00000

[...]

     enthalpy old            =    -303.0515095237 Ry
     enthalpy new            =    -303.0517962770 Ry

     CASE: enthalpy_new < enthalpy_old

[...]

     Threshold (ethr) on eigenvalues was too large:
     Diagonalizing with lowered threshold

     Davidson diagonalization with overlap
     ethr =  4.53E-10,  avg # of iterations =  3.9

[...]

     WARNING: bfgs curvature condition failed, Theta= 0.879
     new trust radius        =       0.0029951118 bohr
     new conv_thr            =       0.0000000100 Ry

[...]

     Total force =     0.002113     Total SCF correction =     0.000259
     SCF correction compared to forces is large: reduce conv_thr to get better values

[...]

     number of scf cycles    =   7
     number of bfgs steps    =   6

     enthalpy old            =    -303.0521026909 Ry
     enthalpy new            =    -303.0521167238 Ry

     CASE: enthalpy_new < enthalpy_old

     new trust radius        =       0.0067375002 bohr
     new conv_thr            =       0.0000000100 Ry

     new unit-cell volume =   1009.81932 a.u.^3 (   149.63978 Ang^3 )

[...]

ATOMIC_POSITIONS (crystal)
Ca       0.240047843   0.248479687   0.109009539
Ca       0.259206789  -0.249160749   0.608883566
Ca       0.740754791   0.249144773   0.390590542
Ca      -0.240266016  -0.248439937  -0.109137795
H        0.355441761   0.250203211   0.426825213
H        0.144383679  -0.250357990   0.926567204
H        0.855701879   0.250357207   0.073206917
H       -0.355616331  -0.250212867  -0.427015750
H        0.975394483   0.249998648   0.676153259
H       -0.475443121  -0.250034982   1.176241540
H        1.475799194   0.250030805  -0.175048120
H       -0.975404950  -0.250007806  -0.676276116

     Writing output data file CaH2_ambient.save
     NEW-OLD atomic charge density approx. for the potential
     NEW k-points: (use verbosity='high' to print them)
     extrapolated charge   47.98676, renormalised to   48.00000

[...]

     Threshold (ethr) on eigenvalues was too large:
     Diagonalizing with lowered threshold

     Davidson diagonalization with overlap
     ethr =  2.00E-08,  avg # of iterations =  2.1

[...]

     Total force =     0.001201     Total SCF correction =     0.000218
     SCF correction compared to forces is large: reduce conv_thr to get better values

[...]

     bfgs converged in   8 scf cycles and   7 bfgs steps
     (criteria: energy < 0.10E-03, force < 0.10E-02, cell < 0.50E+00)

     End of BFGS Geometry Optimization

     Final enthalpy =    -303.0521315606 Ry
Begin final coordinates
     new unit-cell volume =   1009.81932 a.u.^3 (   149.63978 Ang^3 )

CELL_PARAMETERS (alat= 11.28030000)
   1.005703768   0.000141373  -0.000103322
   0.000085473   0.607436459   0.000089407
  -0.000118338   0.000169532   1.151624293

ATOMIC_POSITIONS (crystal)
Ca       0.240047843   0.248479687   0.109009539
Ca       0.259206789  -0.249160749   0.608883566
Ca       0.740754791   0.249144773   0.390590542
Ca      -0.240266016  -0.248439937  -0.109137795
H        0.355441761   0.250203211   0.426825213
H        0.144383679  -0.250357990   0.926567204
H        0.855701879   0.250357207   0.073206917
H       -0.355616331  -0.250212867  -0.427015750
H        0.975394483   0.249998648   0.676153259
H       -0.475443121  -0.250034982   1.176241540
H        1.475799194   0.250030805  -0.175048120
H       -0.975404950  -0.250007806  -0.676276116
End final coordinates

     A final scf calculation at the relaxed structure.
     The G-vectors are recalculated for the final unit cell
     Results may differ from those at the preceding step.

     bravais-lattice index     =            8
     lattice parameter (alat)  =      11.2803  a.u.
     unit-cell volume          =    1009.8193 (a.u.)^3
     number of atoms/cell      =           12
     number of atomic types    =            2
     number of electrons       =        48.00
     number of Kohn-Sham states=           24
     kinetic-energy cutoff     =      40.0000  Ry
     charge density cutoff     =     160.0000  Ry
     convergence threshold     =      1.0E-08
     mixing beta               =       0.3000
     number of iterations used =           16  local-TF  mixing
     Exchange-correlation      = PBE ( 1 4 3 4 0)
     EXX-fraction              =        0.00

     celldm(1)=  11.280300  celldm(2)=   0.604300  celldm(3)=   1.146000
     celldm(4)=   0.000000  celldm(5)=   0.000000  celldm(6)=   0.000000

     crystal axes: (cart. coord. in units of alat)
               a(1) = (   1.005704   0.000141  -0.000103 )
               a(2) = (   0.000085   0.607436   0.000089 )
               a(3) = (  -0.000118   0.000170   1.151624 )

     reciprocal axes: (cart. coord. in units 2 pi/alat)
               b(1) = (  0.994329 -0.000140  0.000102 )
               b(2) = ( -0.000231  1.646263 -0.000242 )
               b(3) = (  0.000089 -0.000128  0.868339 )

     PseudoPot. # 1 for H  read from file:
     /home/ilia/espresso/pseudo/H.pbe-sp-mt.ncpp
     MD5 check sum: 7a641936b52ccecd26bd1ad87cca5aed
     Pseudo is Norm-conserving, Zval =  1.0
     Generated by old ld1 code (numerical format)
     Using radial grid of 1076 points,  0 beta functions with:

     PseudoPot. # 2 for Ca read from file:
     /home/ilia/espresso/pseudo/Ca.pbe-sp-mt_ion2.ncpp
     MD5 check sum: 4bcd670d05521f7b178fdf0a334578ab
     Pseudo is Norm-conserving, Zval = 10.0
     Generated by old ld1 code (numerical format)
     Using radial grid of 1153 points,  1 beta functions with:
                l(1) =   1

     atomic species   valence    mass     pseudopotential
        H              1.00     1.00700     H ( 1.00)
        Ca            10.00    40.07800     Ca( 1.00)

     No symmetry found
          (note:  1 additional sym.ops. were found but ignored
           their fractional translations are incommensurate with FFT grid)

   Cartesian axes

     site n.     atom                  positions (alat units)
         1           Ca  tau(   1) = (   0.2414254   0.1509880   0.1255354  )
         2           Ca  tau(   2) = (   0.2605919  -0.1512095   0.7011560  )
         3           Ca  tau(   3) = (   0.7449550   0.1515106   0.4497593  )
         4           Ca  tau(   4) = (  -0.2416448  -0.1509639  -0.1256831  )
         5           H   tau(   5) = (   0.3574400   0.1521052   0.4915279  )
         6           H   tau(   6) = (   0.1450762  -0.1518991   1.0670200  )
         7           H   tau(   7) = (   0.8605953   0.1522095   0.0842408  )
         8           H   tau(   8) = (  -0.3576155  -0.1521111  -0.4917473  )
         9           H   tau(   9) = (   0.9808993   0.1521108   0.7785961  )
        10           H   tau(  10) = (  -0.4783155  -0.1517482   1.3546151  )
        11           H   tau(  11) = (   1.4842589   0.1520568  -0.2017198  )
        12           H   tau(  12) = (  -0.9809098  -0.1521164  -0.7787376  )

     number of k points=   108

     Number of k-points >= 100: set verbosity='high' to print them.

     Largest allocated arrays     est. size (Mb)     dimensions
     Largest temporary arrays     est. size (Mb)     dimensions

     Initial potential from superposition of free atoms

     starting charge   39.99992, renormalised to   48.00000
     Starting wfc are   24 randomized atomic wfcs

     Writing output data file CaH2_ambient.save

     Self-consistent Calculation

[...]

     total energy              =    -303.05374246 Ry
     Harris-Foulkes estimate   =    -303.05374255 Ry
     estimated scf accuracy    <       0.00000017 Ry

     iteration # 13     ecut=    40.00 Ry     beta=0.30
     Davidson diagonalization with overlap
     ethr =  3.45E-10,  avg # of iterations =  2.0

     End of self-consistent calculation

     Number of k-points >= 100: set verbosity='high' to print the bands.

!    total energy              =    -303.05374249 Ry
     Harris-Foulkes estimate   =    -303.05374250 Ry
     estimated scf accuracy    <          8.4E-09 Ry

     The total energy is the sum of the following terms:

     one-electron contribution =    -123.34096834 Ry
     hartree contribution      =      68.57575728 Ry
     xc contribution           =     -46.57230150 Ry
     ewald contribution        =    -201.71622994 Ry

     convergence has been achieved in  13 iterations

     Forces acting on atoms (Ry/au):

     atom    1 type  2   force =     0.00026736   -0.00005657   -0.00025120
     atom    2 type  2   force =    -0.00002402   -0.00004235   -0.00004305
     atom    3 type  2   force =    -0.00011145    0.00002554    0.00051428
     atom    4 type  2   force =    -0.00010742    0.00006961    0.00031396
     atom    5 type  1   force =     0.00003176    0.00011220   -0.00035656
     atom    6 type  1   force =    -0.00002777   -0.00019935   -0.00022743
     atom    7 type  1   force =     0.00002817    0.00020802    0.00021722
     atom    8 type  1   force =     0.00001992   -0.00011520    0.00048089
     atom    9 type  1   force =     0.00015550   -0.00002097   -0.00013876
     atom   10 type  1   force =    -0.00007171   -0.00001133   -0.00004241
     atom   11 type  1   force =     0.00002287    0.00001412   -0.00049212
     atom   12 type  1   force =    -0.00018322    0.00001627    0.00002516

     Total force =     0.001197     Total SCF correction =     0.000048

     entering subroutine stress ...

          total   stress  (Ry/bohr**3)                   (kbar)     P=    1.31
   0.00000754   0.00000035   0.00000030          1.11      0.05      0.04
   0.00000035   0.00001081   0.00000048          0.05      1.59      0.07
   0.00000030   0.00000048   0.00000829          0.04      0.07      1.22

     Writing output data file CaH2_ambient.save

     General routines

   This run was terminated on:  19:15: 0   3Jun2014

   JOB DONE.