     Program PWSCF v.5.0.2 (svn rev. 9392) starts on  4Jun2014 at  8:20:49

     Current dimensions of program PWSCF are:
     Max number of different atomic species (ntypx) = 10
     Max number of k-points (npk) =  40000
     Max angular momentum in pseudopotentials (lmaxx) =  3
     Waiting for input...
     Reading input from standard input

     bravais-lattice index     =            8
     lattice parameter (alat)  =      11.2803  a.u.
     unit-cell volume          =     994.0292 (a.u.)^3
     number of atoms/cell      =           12
     number of atomic types    =            2
     number of electrons       =        48.00
     number of Kohn-Sham states=           24
     kinetic-energy cutoff     =      40.0000  Ry
     charge density cutoff     =     160.0000  Ry
     convergence threshold     =      1.0E-06
     mixing beta               =       0.3000
     number of iterations used =           16  local-TF  mixing
     Exchange-correlation      = PBE ( 1 4 3 4 0)
     EXX-fraction              =        0.00
     nstep                     =           50

     celldm(1)=  11.280300  celldm(2)=   0.604300  celldm(3)=   1.146000
     celldm(4)=   0.000000  celldm(5)=   0.000000  celldm(6)=   0.000000

     crystal axes: (cart. coord. in units of alat)
               a(1) = (   1.000000   0.000000   0.000000 )
               a(2) = (   0.000000   0.604300   0.000000 )
               a(3) = (   0.000000   0.000000   1.146000 )

     reciprocal axes: (cart. coord. in units 2 pi/alat)
               b(1) = (  1.000000  0.000000  0.000000 )
               b(2) = (  0.000000  1.654807  0.000000 )
               b(3) = (  0.000000  0.000000  0.872600 )

     PseudoPot. # 1 for H  read from file:
     /home/ilia/espresso/pseudo/H.pbe-sp-mt.ncpp
     MD5 check sum: 7a641936b52ccecd26bd1ad87cca5aed
     Pseudo is Norm-conserving, Zval =  1.0
     Generated by old ld1 code (numerical format)
     Using radial grid of 1076 points,  0 beta functions with:

     PseudoPot. # 2 for Ca read from file:
     /home/ilia/espresso/pseudo/Ca.pbe-sp-mt_ion2.ncpp
     MD5 check sum: 4bcd670d05521f7b178fdf0a334578ab
     Pseudo is Norm-conserving, Zval = 10.0
     Generated by old ld1 code (numerical format)
     Using radial grid of 1153 points,  1 beta functions with:
                l(1) =   1

     atomic species   valence    mass     pseudopotential
        H              1.00     1.00700     H ( 1.00)
        Ca            10.00    40.07800     Ca( 1.00)

     No symmetry found
          (note:  1 additional sym.ops. were found but ignored
           their fractional translations are incommensurate with FFT grid)

   Cartesian axes

     site n.     atom                  positions (alat units)
         1           Ca  tau(   1) = (   0.2400000   0.1510750   0.1259454  )
         2           Ca  tau(   2) = (   0.2600000  -0.1510750   0.6989454  )
         3           Ca  tau(   3) = (   0.7400000   0.1510750   0.4470546  )
         4           Ca  tau(   4) = (  -0.2400000  -0.1510750  -0.1259454  )
         5           H   tau(   5) = (   0.3557000   0.1510750   0.4887690  )
         6           H   tau(   6) = (   0.1443000  -0.1510750   1.0617690  )
         7           H   tau(   7) = (   0.8557000   0.1510750   0.0842310  )
         8           H   tau(   8) = (  -0.3557000  -0.1510750  -0.4922070  )
         9           H   tau(   9) = (   0.9754000   0.1510750   0.7752690  )
        10           H   tau(  10) = (  -0.4754000  -0.1510750   1.3482690  )
        11           H   tau(  11) = (   1.4754000   0.1510750  -0.1988310  )
        12           H   tau(  12) = (  -0.9754000  -0.1510750  -0.7752690  )

     number of k points=   108

     Number of k-points >= 100: set verbosity='high' to print them.

     Largest allocated arrays     est. size (Mb)     dimensions
     Largest temporary arrays     est. size (Mb)     dimensions

     Initial potential from superposition of free atoms

     starting charge   39.99992, renormalised to   48.00000
     Starting wfc are   24 randomized atomic wfcs

     Self-consistent Calculation

     iteration #  1     ecut=    40.00 Ry     beta=0.30
     Davidson diagonalization with overlap
     ethr =  1.00E-02,  avg # of iterations =  2.0

     total energy              =    -306.47248621 Ry
     Harris-Foulkes estimate   =    -308.75457630 Ry
     estimated scf accuracy    <      11.56521712 Ry

[...]

     End of self-consistent calculation

     Number of k-points >= 100: set verbosity='high' to print the bands.

!    total energy              =    -303.05150952 Ry
     Harris-Foulkes estimate   =    -303.05150979 Ry
     estimated scf accuracy    <       0.00000075 Ry

     The total energy is the sum of the following terms:

     one-electron contribution =    -121.74451130 Ry
     hartree contribution      =      68.07615896 Ry
     xc contribution           =     -46.61644453 Ry
     ewald contribution        =    -202.76671266 Ry

     convergence has been achieved in  10 iterations

     Forces acting on atoms (Ry/au):

     atom    1 type  2   force =    -0.00033836   -0.00114419   -0.00043883
     atom    2 type  2   force =    -0.00161341    0.00070798   -0.00142378
     atom    3 type  2   force =     0.00197308   -0.00070823   -0.00060445
     atom    4 type  2   force =    -0.00015704    0.00114508    0.00071155
     atom    5 type  1   force =    -0.00046958    0.00000139    0.00084641
     atom    6 type  1   force =     0.00029097   -0.00000126    0.00024858
     atom    7 type  1   force =    -0.00023970    0.00000111   -0.00049480
     atom    8 type  1   force =     0.00007765   -0.00000159    0.00326895
     atom    9 type  1   force =    -0.00011854    0.00000033    0.00001349
     atom   10 type  1   force =    -0.00009196   -0.00000187   -0.00002380
     atom   11 type  1   force =     0.00055668    0.00000174   -0.00216227
     atom   12 type  1   force =     0.00013020   -0.00000048    0.00005894

     Total force =     0.005519     Total SCF correction =     0.000252

     entering subroutine stress ...

          total   stress  (Ry/bohr**3)                   (kbar)     P=    9.75
   0.00006905   0.00000003  -0.00000125         10.16      0.00     -0.18
   0.00000003   0.00006412   0.00000001          0.00      9.43      0.00
  -0.00000125   0.00000001   0.00006562         -0.18      0.00      9.65

     BFGS Geometry Optimization

     number of scf cycles    =   1
     number of bfgs steps    =   0

     enthalpy new            =    -300.3485996857 Ry

     new trust radius        =       0.4185407641 bohr
     new conv_thr            =       0.0000010000 Ry

     new unit-cell volume =    809.07831 a.u.^3 (   119.89303 Ang^3 )

CELL_PARAMETERS (alat= 11.28030000)
   0.933747738   0.000000735  -0.000031358
   0.000000444   0.564189250   0.000000214
  -0.000035937   0.000000406   1.069976504

ATOMIC_POSITIONS (crystal)
Ca       0.239970004   0.249832148   0.109866054
Ca       0.259856971  -0.249896140   0.609789862
Ca       0.740174914   0.249896103   0.390053242
Ca      -0.240013921  -0.249832018  -0.109844957
H        0.355658372   0.250000203   0.426565475
H        0.144325795  -0.250000185   0.926519229
H        0.855678751   0.250000162   0.073461724
H       -0.355693117  -0.250000233  -0.429247127
H        0.975389492   0.250000049   0.676501044
H       -0.475408152  -0.250000274   1.176498159
H        1.475449350   0.250000255  -0.173667265
H       -0.975388458  -0.250000070  -0.676495440

     Writing output data file CaH2_ambient.save
     NEW-OLD atomic charge density approx. for the potential
     NEW k-points: (use verbosity='high' to print them)
     extrapolated charge   38.85623, renormalised to   48.00000

[...]

     enthalpy old            =    -300.3485996857 Ry
     enthalpy new            =    -300.7496935512 Ry

     CASE: enthalpy_new < enthalpy_old

[...]

     Threshold (ethr) on eigenvalues was too large:
     Diagonalizing with lowered threshold

     Davidson diagonalization with overlap
     ethr =  8.01E-08,  avg # of iterations =  1.1

[...]

     Total force =     0.001644     Total SCF correction =     0.000259
     SCF correction compared to forces is large: reduce conv_thr to get better values

[...]

     number of scf cycles    =  31
     number of bfgs steps    =  30

     enthalpy old            =    -300.9277851189 Ry
     enthalpy new            =    -300.9277912161 Ry

     CASE: enthalpy_new < enthalpy_old

     new trust radius        =       0.0017352635 bohr
     new conv_thr            =       0.0000000100 Ry

     new unit-cell volume =    641.07898 a.u.^3 (    94.99810 Ang^3 )

[...]

ATOMIC_POSITIONS (crystal)
Ca       0.250047950   0.249782133   0.082959027
Ca       0.249984044  -0.249793095   0.582945164
Ca       0.749975310   0.249790327   0.417073571
Ca      -0.250001961  -0.249780253  -0.082891906
H        0.250360787   0.250173298   0.416681932
H        0.249511752  -0.250219600   0.916733853
H        0.750453567   0.250224197   0.083358639
H       -0.250418308  -0.250176811  -0.416695170
H        0.999934984   0.250031831   0.749931874
H       -0.499901332  -0.250046775   1.249967612
H        1.499907568   0.250048230  -0.250031613
H       -0.999854361  -0.250033482  -0.750032984

     Writing output data file CaH2_ambient.save
     NEW-OLD atomic charge density approx. for the potential
     NEW k-points: (use verbosity='high' to print them)
     extrapolated charge   48.00342, renormalised to   48.00000

[...]

     Threshold (ethr) on eigenvalues was too large:
     Diagonalizing with lowered threshold

     Davidson diagonalization with overlap
     ethr =  3.42E-09,  avg # of iterations =  3.0

[...]

     bfgs converged in  32 scf cycles and  31 bfgs steps
     (criteria: energy < 0.10E-03, force < 0.10E-02, cell < 0.50E+00)

     End of BFGS Geometry Optimization

     Final enthalpy =    -300.9277947834 Ry
Begin final coordinates
     new unit-cell volume =    641.07898 a.u.^3 (    94.99810 Ang^3 )

CELL_PARAMETERS (alat= 11.28030000)
   0.754290396   0.000044474  -0.000085003
  -0.000035317   0.585394525  -0.000020718
   0.000213298   0.000006675   1.011491735

ATOMIC_POSITIONS (crystal)
Ca       0.250047950   0.249782133   0.082959027
Ca       0.249984044  -0.249793095   0.582945164
Ca       0.749975310   0.249790327   0.417073571
Ca      -0.250001961  -0.249780253  -0.082891906
H        0.250360787   0.250173298   0.416681932
H        0.249511752  -0.250219600   0.916733853
H        0.750453567   0.250224197   0.083358639
H       -0.250418308  -0.250176811  -0.416695170
H        0.999934984   0.250031831   0.749931874
H       -0.499901332  -0.250046775   1.249967612
H        1.499907568   0.250048230  -0.250031613
H       -0.999854361  -0.250033482  -0.750032984
End final coordinates

     A final scf calculation at the relaxed structure.
     The G-vectors are recalculated for the final unit cell
     Results may differ from those at the preceding step.

     bravais-lattice index     =            8
     lattice parameter (alat)  =      11.2803  a.u.
     unit-cell volume          =     641.0790 (a.u.)^3
     number of atoms/cell      =           12
     number of atomic types    =            2
     number of electrons       =        48.00
     number of Kohn-Sham states=           24
     kinetic-energy cutoff     =      40.0000  Ry
     charge density cutoff     =     160.0000  Ry
     convergence threshold     =      1.0E-08
     mixing beta               =       0.3000
     number of iterations used =           16  local-TF  mixing
     Exchange-correlation      = PBE ( 1 4 3 4 0)
     EXX-fraction              =        0.00

     celldm(1)=  11.280300  celldm(2)=   0.604300  celldm(3)=   1.146000
     celldm(4)=   0.000000  celldm(5)=   0.000000  celldm(6)=   0.000000

     crystal axes: (cart. coord. in units of alat)
               a(1) = (   0.754290   0.000044  -0.000085 )
               a(2) = (  -0.000035   0.585395  -0.000021 )
               a(3) = (   0.000213   0.000007   1.011492 )

     reciprocal axes: (cart. coord. in units 2 pi/alat)
               b(1) = (  1.325749  0.000080 -0.000280 )
               b(2) = ( -0.000101  1.708250 -0.000011 )
               b(3) = (  0.000111  0.000035  0.988639 )

     PseudoPot. # 1 for H  read from file:
     /home/ilia/espresso/pseudo/H.pbe-sp-mt.ncpp
     MD5 check sum: 7a641936b52ccecd26bd1ad87cca5aed
     Pseudo is Norm-conserving, Zval =  1.0
     Generated by old ld1 code (numerical format)
     Using radial grid of 1076 points,  0 beta functions with:

     PseudoPot. # 2 for Ca read from file:
     /home/ilia/espresso/pseudo/Ca.pbe-sp-mt_ion2.ncpp
     MD5 check sum: 4bcd670d05521f7b178fdf0a334578ab
     Pseudo is Norm-conserving, Zval = 10.0
     Generated by old ld1 code (numerical format)
     Using radial grid of 1153 points,  1 beta functions with:
                l(1) =   1

     atomic species   valence    mass     pseudopotential
        H              1.00     1.00700     H ( 1.00)
        Ca            10.00    40.07800     Ca( 1.00)

     No symmetry found
          (note:  1 additional sym.ops. were found but ignored
           their fractional translations are incommensurate with FFT grid)

   Cartesian axes

     site n.     atom                  positions (alat units)
         1           Ca  tau(   1) = (   0.1886176   0.1462328   0.0838859  )
         2           Ca  tau(   2) = (   0.1886937  -0.1462125   0.5896281  )
         3           Ca  tau(   3) = (   0.5657793   0.1462620   0.4217975  )
         4           Ca  tau(   4) = (  -0.1885829  -0.1462317  -0.0838181  )
         5           H   tau(   5) = (   0.1889248   0.1464640   0.4214439  )
         6           H   tau(   6) = (   0.1884087  -0.1464600   0.9272527  )
         7           H   tau(   7) = (   0.5660689   0.1465138   0.0842476  )
         8           H   tau(   8) = (  -0.1889682  -0.1464661  -0.4214573  )
         9           H   tau(   9) = (   0.7543925   0.1464167   0.7584597  )
        10           H   tau(  10) = (  -0.3767953  -0.1463899   1.2643796  )
        11           H   tau(  11) = (   1.1313037   0.1464419  -0.2530376  )
        12           H   tau(  12) = (  -0.7543317  -0.1464177  -0.7585620  )

     number of k points=   108

     Number of k-points >= 100: set verbosity='high' to print them.

     Largest allocated arrays     est. size (Mb)     dimensions
     Largest temporary arrays     est. size (Mb)     dimensions

     Initial potential from superposition of free atoms

     starting charge   39.99992, renormalised to   48.00000
     Starting wfc are   24 randomized atomic wfcs

     Writing output data file CaH2_ambient.save

     Self-consistent Calculation

[...]

     total energy              =    -302.63890497 Ry
     Harris-Foulkes estimate   =    -302.63890497 Ry
     estimated scf accuracy    <       0.00000001 Ry

     iteration # 13     ecut=    40.00 Ry     beta=0.30
     Davidson diagonalization with overlap
     ethr =  2.52E-11,  avg # of iterations =  2.0

     End of self-consistent calculation

     Number of k-points >= 100: set verbosity='high' to print the bands.

!    total energy              =    -302.63890497 Ry
     Harris-Foulkes estimate   =    -302.63890497 Ry
     estimated scf accuracy    <          4.2E-10 Ry

     The total energy is the sum of the following terms:

     one-electron contribution =     -72.10523980 Ry
     hartree contribution      =      52.59417162 Ry
     xc contribution           =     -47.87080796 Ry
     ewald contribution        =    -235.25702883 Ry

     convergence has been achieved in  13 iterations

     Forces acting on atoms (Ry/au):

     atom    1 type  2   force =     0.00012163   -0.00039708   -0.00059781
     atom    2 type  2   force =    -0.00019947    0.00055465    0.00144978
     atom    3 type  2   force =     0.00026472   -0.00055552   -0.00138912
     atom    4 type  2   force =    -0.00019172    0.00038933    0.00033999
     atom    5 type  1   force =    -0.00019972   -0.00002106   -0.00012977
     atom    6 type  1   force =     0.00028235    0.00006017   -0.00022277
     atom    7 type  1   force =    -0.00023560   -0.00006131    0.00006081
     atom    8 type  1   force =     0.00022311    0.00002541    0.00022351
     atom    9 type  1   force =     0.00000522   -0.00000522   -0.00003602
     atom   10 type  1   force =    -0.00003260    0.00001726   -0.00007587
     atom   11 type  1   force =     0.00003567   -0.00001555    0.00018881
     atom   12 type  1   force =    -0.00007357    0.00000892    0.00018848

     Total force =     0.002456     Total SCF correction =     0.000003

     entering subroutine stress ...

          total   stress  (Ry/bohr**3)                   (kbar)     P=  399.45
   0.00273554   0.00000001  -0.00000061        402.41      0.00     -0.09
   0.00000001   0.00269682   0.00000027          0.00    396.72      0.04
  -0.00000061   0.00000027   0.00271382         -0.09      0.04    399.22

     Writing output data file CaH2_ambient.save

     General routines

   This run was terminated on:  13:14:46   4Jun2014

   JOB DONE.