     Program PWSCF v.5.0.2 (svn rev. 9392) starts on  4Jun2014 at  2: 8:34

     Current dimensions of program PWSCF are:
     Max number of different atomic species (ntypx) = 10
     Max number of k-points (npk) =  40000
     Max angular momentum in pseudopotentials (lmaxx) =  3
     Waiting for input...
     Reading input from standard input

     bravais-lattice index     =            8
     lattice parameter (alat)  =      11.2803  a.u.
     unit-cell volume          =     994.0292 (a.u.)^3
     number of atoms/cell      =           12
     number of atomic types    =            2
     number of electrons       =        48.00
     number of Kohn-Sham states=           24
     kinetic-energy cutoff     =      40.0000  Ry
     charge density cutoff     =     160.0000  Ry
     convergence threshold     =      1.0E-06
     mixing beta               =       0.3000
     number of iterations used =           16  local-TF  mixing
     Exchange-correlation      = PBE ( 1 4 3 4 0)
     EXX-fraction              =        0.00
     nstep                     =           50

     celldm(1)=  11.280300  celldm(2)=   0.604300  celldm(3)=   1.146000
     celldm(4)=   0.000000  celldm(5)=   0.000000  celldm(6)=   0.000000

     crystal axes: (cart. coord. in units of alat)
               a(1) = (   1.000000   0.000000   0.000000 )
               a(2) = (   0.000000   0.604300   0.000000 )
               a(3) = (   0.000000   0.000000   1.146000 )

     reciprocal axes: (cart. coord. in units 2 pi/alat)
               b(1) = (  1.000000  0.000000  0.000000 )
               b(2) = (  0.000000  1.654807  0.000000 )
               b(3) = (  0.000000  0.000000  0.872600 )

     PseudoPot. # 1 for H  read from file:
     /home/ilia/espresso/pseudo/H.pbe-sp-mt.ncpp
     MD5 check sum: 7a641936b52ccecd26bd1ad87cca5aed
     Pseudo is Norm-conserving, Zval =  1.0
     Generated by old ld1 code (numerical format)
     Using radial grid of 1076 points,  0 beta functions with:

     PseudoPot. # 2 for Ca read from file:
     /home/ilia/espresso/pseudo/Ca.pbe-sp-mt_ion2.ncpp
     MD5 check sum: 4bcd670d05521f7b178fdf0a334578ab
     Pseudo is Norm-conserving, Zval = 10.0
     Generated by old ld1 code (numerical format)
     Using radial grid of 1153 points,  1 beta functions with:
                l(1) =   1

     atomic species   valence    mass     pseudopotential
        H              1.00     1.00700     H ( 1.00)
        Ca            10.00    40.07800     Ca( 1.00)

     No symmetry found
          (note:  1 additional sym.ops. were found but ignored
           their fractional translations are incommensurate with FFT grid)

   Cartesian axes

     site n.     atom                  positions (alat units)
         1           Ca  tau(   1) = (   0.2400000   0.1510750   0.1259454  )
         2           Ca  tau(   2) = (   0.2600000  -0.1510750   0.6989454  )
         3           Ca  tau(   3) = (   0.7400000   0.1510750   0.4470546  )
         4           Ca  tau(   4) = (  -0.2400000  -0.1510750  -0.1259454  )
         5           H   tau(   5) = (   0.3557000   0.1510750   0.4887690  )
         6           H   tau(   6) = (   0.1443000  -0.1510750   1.0617690  )
         7           H   tau(   7) = (   0.8557000   0.1510750   0.0842310  )
         8           H   tau(   8) = (  -0.3557000  -0.1510750  -0.4922070  )
         9           H   tau(   9) = (   0.9754000   0.1510750   0.7752690  )
        10           H   tau(  10) = (  -0.4754000  -0.1510750   1.3482690  )
        11           H   tau(  11) = (   1.4754000   0.1510750  -0.1988310  )
        12           H   tau(  12) = (  -0.9754000  -0.1510750  -0.7752690  )

     number of k points=   108

     Number of k-points >= 100: set verbosity='high' to print them.

     Largest allocated arrays     est. size (Mb)     dimensions
     Largest temporary arrays     est. size (Mb)     dimensions

     Initial potential from superposition of free atoms

     starting charge   39.99992, renormalised to   48.00000
     Starting wfc are   24 randomized atomic wfcs

     Self-consistent Calculation

     iteration #  1     ecut=    40.00 Ry     beta=0.30
     Davidson diagonalization with overlap
     ethr =  1.00E-02,  avg # of iterations =  2.0

     total energy              =    -306.47248621 Ry
     Harris-Foulkes estimate   =    -308.75457630 Ry
     estimated scf accuracy    <      11.56521712 Ry

[...]

     End of self-consistent calculation

     Number of k-points >= 100: set verbosity='high' to print the bands.

!    total energy              =    -303.05150952 Ry
     Harris-Foulkes estimate   =    -303.05150979 Ry
     estimated scf accuracy    <       0.00000075 Ry

     The total energy is the sum of the following terms:

     one-electron contribution =    -121.74451130 Ry
     hartree contribution      =      68.07615896 Ry
     xc contribution           =     -46.61644453 Ry
     ewald contribution        =    -202.76671266 Ry

     convergence has been achieved in  10 iterations

     Forces acting on atoms (Ry/au):

     atom    1 type  2   force =    -0.00033836   -0.00114419   -0.00043883
     atom    2 type  2   force =    -0.00161341    0.00070798   -0.00142378
     atom    3 type  2   force =     0.00197308   -0.00070823   -0.00060445
     atom    4 type  2   force =    -0.00015704    0.00114508    0.00071155
     atom    5 type  1   force =    -0.00046958    0.00000139    0.00084641
     atom    6 type  1   force =     0.00029097   -0.00000126    0.00024858
     atom    7 type  1   force =    -0.00023970    0.00000111   -0.00049480
     atom    8 type  1   force =     0.00007765   -0.00000159    0.00326895
     atom    9 type  1   force =    -0.00011854    0.00000033    0.00001349
     atom   10 type  1   force =    -0.00009196   -0.00000187   -0.00002380
     atom   11 type  1   force =     0.00055668    0.00000174   -0.00216227
     atom   12 type  1   force =     0.00013020   -0.00000048    0.00005894

     Total force =     0.005519     Total SCF correction =     0.000252

     entering subroutine stress ...

          total   stress  (Ry/bohr**3)                   (kbar)     P=    9.75
   0.00006905   0.00000003  -0.00000125         10.16      0.00     -0.18
   0.00000003   0.00006412   0.00000001          0.00      9.43      0.00
  -0.00000125   0.00000001   0.00006562         -0.18      0.00      9.65

     BFGS Geometry Optimization

     number of scf cycles    =   1
     number of bfgs steps    =   0

     enthalpy new            =    -301.0243271452 Ry

     new trust radius        =       0.3113784715 bohr
     new conv_thr            =       0.0000010000 Ry

     new unit-cell volume =    854.06749 a.u.^3 (   126.55974 Ang^3 )

CELL_PARAMETERS (alat= 11.28030000)
   0.950742396   0.000000735  -0.000031358
   0.000000444   0.574459121   0.000000214
  -0.000035937   0.000000406   1.089452382

ATOMIC_POSITIONS (crystal)
Ca       0.239970004   0.249832148   0.109866054
Ca       0.259856971  -0.249896140   0.609789862
Ca       0.740174914   0.249896103   0.390053242
Ca      -0.240013921  -0.249832018  -0.109844957
H        0.355658372   0.250000203   0.426565475
H        0.144325795  -0.250000185   0.926519229
H        0.855678751   0.250000162   0.073461724
H       -0.355693117  -0.250000233  -0.429247127
H        0.975389492   0.250000049   0.676501044
H       -0.475408152  -0.250000274   1.176498159
H        1.475449350   0.250000255  -0.173667265
H       -0.975388458  -0.250000070  -0.676495440

     Writing output data file CaH2_ambient.save
     NEW-OLD atomic charge density approx. for the potential
     NEW k-points: (use verbosity='high' to print them)
     extrapolated charge   41.44495, renormalised to   48.00000

[...]

     enthalpy old            =    -301.0243271452 Ry
     enthalpy new            =    -301.2525675558 Ry

     CASE: enthalpy_new < enthalpy_old

[...]

     WARNING: bfgs curvature condition failed, Theta= 0.941
     new trust radius        =       0.0188288776 bohr
     new conv_thr            =       0.0000001014 Ry

[...]

     Threshold (ethr) on eigenvalues was too large:
     Diagonalizing with lowered threshold

     Davidson diagonalization with overlap
     ethr =  3.84E-08,  avg # of iterations =  1.4

[...]

     number of scf cycles    =  32
     number of bfgs steps    =  31

     enthalpy old            =    -301.3773341662 Ry
     enthalpy new            =    -301.3773492488 Ry

     CASE: enthalpy_new < enthalpy_old

     new trust radius        =       0.0021980323 bohr
     new conv_thr            =       0.0000000100 Ry

     new unit-cell volume =    683.30762 a.u.^3 (   101.25574 Ang^3 )

[...]

ATOMIC_POSITIONS (crystal)
Ca       0.250033432   0.249672380   0.083146354
Ca       0.249974053  -0.249857759   0.583161595
Ca       0.749963521   0.249844646   0.416883485
Ca      -0.249969202  -0.249661216  -0.083039091
H        0.250698707   0.250161726   0.416703332
H        0.249261566  -0.250348425   0.916711174
H        0.750714867   0.250369962   0.083347246
H       -0.250800315  -0.250182815  -0.416709829
H        1.000463167   0.249996668   0.749819912
H       -0.500399569  -0.250030397   1.249849807
H        1.500427546   0.250032895  -0.249912374
H       -1.000367772  -0.249997665  -0.749961613

     Writing output data file CaH2_ambient.save
     NEW-OLD atomic charge density approx. for the potential
     NEW k-points: (use verbosity='high' to print them)
     extrapolated charge   48.00292, renormalised to   48.00000

[...]

     Threshold (ethr) on eigenvalues was too large:
     Diagonalizing with lowered threshold

     Davidson diagonalization with overlap
     ethr =  6.74E-09,  avg # of iterations =  2.8

[...]

     Total force =     0.001371     Total SCF correction =     0.000187
     SCF correction compared to forces is large: reduce conv_thr to get better values

[...]

     bfgs converged in  33 scf cycles and  32 bfgs steps
     (criteria: energy < 0.10E-03, force < 0.10E-02, cell < 0.50E+00)

     End of BFGS Geometry Optimization

     Final enthalpy =    -301.3773568230 Ry
Begin final coordinates
     new unit-cell volume =    683.30762 a.u.^3 (   101.25574 Ang^3 )

CELL_PARAMETERS (alat= 11.28030000)
   0.774930358  -0.000011013   0.000263515
  -0.000012254   0.595814252   0.000003880
   0.000016574   0.000161235   1.031052448

ATOMIC_POSITIONS (crystal)
Ca       0.250033432   0.249672380   0.083146354
Ca       0.249974053  -0.249857759   0.583161595
Ca       0.749963521   0.249844646   0.416883485
Ca      -0.249969202  -0.249661216  -0.083039091
H        0.250698707   0.250161726   0.416703332
H        0.249261566  -0.250348425   0.916711174
H        0.750714867   0.250369962   0.083347246
H       -0.250800315  -0.250182815  -0.416709829
H        1.000463167   0.249996668   0.749819912
H       -0.500399569  -0.250030397   1.249849807
H        1.500427546   0.250032895  -0.249912374
H       -1.000367772  -0.249997665  -0.749961613
End final coordinates

     A final scf calculation at the relaxed structure.
     The G-vectors are recalculated for the final unit cell
     Results may differ from those at the preceding step.

     bravais-lattice index     =            8
     lattice parameter (alat)  =      11.2803  a.u.
     unit-cell volume          =     683.3076 (a.u.)^3
     number of atoms/cell      =           12
     number of atomic types    =            2
     number of electrons       =        48.00
     number of Kohn-Sham states=           24
     kinetic-energy cutoff     =      40.0000  Ry
     charge density cutoff     =     160.0000  Ry
     convergence threshold     =      1.0E-08
     mixing beta               =       0.3000
     number of iterations used =           16  local-TF  mixing
     Exchange-correlation      = PBE ( 1 4 3 4 0)
     EXX-fraction              =        0.00

     celldm(1)=  11.280300  celldm(2)=   0.604300  celldm(3)=   1.146000
     celldm(4)=   0.000000  celldm(5)=   0.000000  celldm(6)=   0.000000

     crystal axes: (cart. coord. in units of alat)
               a(1) = (   0.774930  -0.000011   0.000264 )
               a(2) = (  -0.000012   0.595814   0.000004 )
               a(3) = (   0.000017   0.000161   1.031052 )

     reciprocal axes: (cart. coord. in units 2 pi/alat)
               b(1) = (  1.290439  0.000027 -0.000021 )
               b(2) = (  0.000024  1.678375 -0.000262 )
               b(3) = ( -0.000330 -0.000006  0.969883 )

     PseudoPot. # 1 for H  read from file:
     /home/ilia/espresso/pseudo/H.pbe-sp-mt.ncpp
     MD5 check sum: 7a641936b52ccecd26bd1ad87cca5aed
     Pseudo is Norm-conserving, Zval =  1.0
     Generated by old ld1 code (numerical format)
     Using radial grid of 1076 points,  0 beta functions with:

     PseudoPot. # 2 for Ca read from file:
     /home/ilia/espresso/pseudo/Ca.pbe-sp-mt_ion2.ncpp
     MD5 check sum: 4bcd670d05521f7b178fdf0a334578ab
     Pseudo is Norm-conserving, Zval = 10.0
     Generated by old ld1 code (numerical format)
     Using radial grid of 1153 points,  1 beta functions with:
                l(1) =   1

     atomic species   valence    mass     pseudopotential
        H              1.00     1.00700     H ( 1.00)
        Ca            10.00    40.07800     Ca( 1.00)

     No symmetry found
          (note:  1 additional sym.ops. were found but ignored
           their fractional translations are incommensurate with FFT grid)

   Cartesian axes

     site n.     atom                  positions (alat units)
         1           Ca  tau(   1) = (   0.1937568   0.1487690   0.0857951  )
         2           Ca  tau(   2) = (   0.1937252  -0.1487775   0.6013351  )
         3           Ca  tau(   3) = (   0.5811733   0.1489200   0.4300273  )
         4           Ca  tau(   4) = (  -0.1937070  -0.1487623  -0.0856845  )
         5           H   tau(   5) = (   0.1942779   0.1491143   0.4297100  )
         6           H   tau(   6) = (   0.1931786  -0.1490161   0.9452420  )
         7           H   tau(   7) = (   0.5817501   0.1491792   0.0861342  )
         8           H   tau(   8) = (  -0.1943566  -0.1491269  -0.4297168  )
         9           H   tau(   9) = (   0.7752986   0.1490615   0.7733683  )
        10           H   tau(  10) = (  -0.3877510  -0.1487646   1.2885279  )
        11           H   tau(  11) = (   1.1627196   0.1489163  -0.2572764  )
        12           H   tau(  12) = (  -0.7752247  -0.1490621  -0.7735143  )

     number of k points=   108

     Number of k-points >= 100: set verbosity='high' to print them.

     Largest allocated arrays     est. size (Mb)     dimensions
     Largest temporary arrays     est. size (Mb)     dimensions

     Initial potential from superposition of free atoms

     starting charge   39.99992, renormalised to   48.00000
     Starting wfc are   24 randomized atomic wfcs

     Writing output data file CaH2_ambient.save

     Self-consistent Calculation

[...]

     total energy              =    -302.74460964 Ry
     Harris-Foulkes estimate   =    -302.74460964 Ry
     estimated scf accuracy    <       0.00000001 Ry

     iteration # 13     ecut=    40.00 Ry     beta=0.30
     Davidson diagonalization with overlap
     ethr =  2.70E-11,  avg # of iterations =  2.0

     End of self-consistent calculation

     Number of k-points >= 100: set verbosity='high' to print the bands.

!    total energy              =    -302.74460964 Ry
     Harris-Foulkes estimate   =    -302.74460964 Ry
     estimated scf accuracy    <          3.4E-10 Ry

     The total energy is the sum of the following terms:

     one-electron contribution =     -79.45353840 Ry
     hartree contribution      =      54.68482983 Ry
     xc contribution           =     -47.63559921 Ry
     ewald contribution        =    -230.34030185 Ry

     convergence has been achieved in  13 iterations

     Forces acting on atoms (Ry/au):

     atom    1 type  2   force =     0.00010109   -0.00161169    0.00020677
     atom    2 type  2   force =    -0.00012019    0.00171099    0.00020062
     atom    3 type  2   force =     0.00019553   -0.00170745   -0.00020910
     atom    4 type  2   force =    -0.00016633    0.00161070   -0.00053256
     atom    5 type  1   force =    -0.00030429   -0.00002649   -0.00019235
     atom    6 type  1   force =     0.00032902    0.00014978   -0.00018754
     atom    7 type  1   force =    -0.00029125   -0.00016425    0.00014226
     atom    8 type  1   force =     0.00034608    0.00003947    0.00029416
     atom    9 type  1   force =    -0.00033997   -0.00000816   -0.00004148
     atom   10 type  1   force =     0.00028158    0.00002618   -0.00008767
     atom   11 type  1   force =    -0.00029590   -0.00002764    0.00018925
     atom   12 type  1   force =     0.00026461    0.00000856    0.00021766

     Total force =     0.003552     Total SCF correction =     0.000005

     entering subroutine stress ...

          total   stress  (Ry/bohr**3)                   (kbar)     P=  297.51
   0.00204559   0.00000019  -0.00000209        300.92      0.03     -0.31
   0.00000019   0.00201095  -0.00000056          0.03    295.82     -0.08
  -0.00000209  -0.00000056   0.00201073         -0.31     -0.08    295.79

     Writing output data file CaH2_ambient.save

     General routines

   This run was terminated on:   8:20:49   4Jun2014

   JOB DONE.