     Program PWSCF v.5.0.2 (svn rev. 9392) starts on 12Jun2014 at  9: 4: 8

     Current dimensions of program PWSCF are:
     Max number of different atomic species (ntypx) = 10
     Max number of k-points (npk) =  40000
     Max angular momentum in pseudopotentials (lmaxx) =  3
     Waiting for input...
     Reading input from standard input

     bravais-lattice index     =            8
     lattice parameter (alat)  =      10.5580  a.u.
     unit-cell volume          =     815.0461 (a.u.)^3
     number of atoms/cell      =           12
     number of atomic types    =            2
     number of electrons       =        48.00
     number of Kohn-Sham states=           24
     kinetic-energy cutoff     =     120.0000  Ry
     charge density cutoff     =     480.0000  Ry
     convergence threshold     =      1.0E-06
     mixing beta               =       0.3000
     number of iterations used =           16  local-TF  mixing
     Exchange-correlation      = BLYP ( 1 3 1 3 0)
     EXX-fraction              =        0.00
     nstep                     =           50

     celldm(1)=  10.558000  celldm(2)=   0.604300  celldm(3)=   1.146000
     celldm(4)=   0.000000  celldm(5)=   0.000000  celldm(6)=   0.000000

     crystal axes: (cart. coord. in units of alat)
               a(1) = (   1.000000   0.000000   0.000000 )
               a(2) = (   0.000000   0.604300   0.000000 )
               a(3) = (   0.000000   0.000000   1.146000 )

     reciprocal axes: (cart. coord. in units 2 pi/alat)
               b(1) = (  1.000000  0.000000  0.000000 )
               b(2) = (  0.000000  1.654807  0.000000 )
               b(3) = (  0.000000  0.000000  0.872600 )

     PseudoPot. # 1 for H  read from file:
     /home/ilia/espresso/pseudo/H.blyp-vbc.UPF
     MD5 check sum: 64d25ad537c4b939b17faee1147b797b
     Pseudo is Norm-conserving, Zval =  1.0
     Generated by new atomic code, or converted to UPF format
     Using radial grid of  243 points,  0 beta functions with:

     PseudoPot. # 2 for Ca read from file:
     /home/ilia/espresso/pseudo/Ca.blyp-sp-hgh.UPF
     MD5 check sum: 357a6b692114ea82b84239caae8ecfc0
     Pseudo is Norm-conserving, Zval = 10.0
     Generated in analytical, separable form
     Using radial grid of 1169 points,  5 beta functions with:
                l(1) =   0
                l(2) =   0
                l(3) =   1
                l(4) =   1
                l(5) =   2

     atomic species   valence    mass     pseudopotential
        H              1.00     1.00700     H ( 1.00)
        Ca            10.00    40.07800     Ca( 1.00)

     No symmetry found
          (note:  1 additional sym.ops. were found but ignored
           their fractional translations are incommensurate with FFT grid)

   Cartesian axes

     site n.     atom                  positions (alat units)
         1           Ca  tau(   1) = (   0.2400000   0.1510750   0.1259454  )
         2           Ca  tau(   2) = (   0.2600000  -0.1510750   0.6989454  )
         3           Ca  tau(   3) = (   0.7400000   0.1510750   0.4470546  )
         4           Ca  tau(   4) = (  -0.2400000  -0.1510750  -0.1259454  )
         5           H   tau(   5) = (   0.3557000   0.1510750   0.4887690  )
         6           H   tau(   6) = (   0.1443000  -0.1510750   1.0617690  )
         7           H   tau(   7) = (   0.8557000   0.1510750   0.0842310  )
         8           H   tau(   8) = (  -0.3557000  -0.1510750  -0.4922070  )
         9           H   tau(   9) = (   0.9754000   0.1510750   0.7752690  )
        10           H   tau(  10) = (  -0.4754000  -0.1510750   1.3482690  )
        11           H   tau(  11) = (   1.4754000   0.1510750  -0.1988310  )
        12           H   tau(  12) = (  -0.9754000  -0.1510750  -0.7752690  )

     number of k points=    48
                       cart. coord. in units 2pi/alat
        k(    1) = (   0.1250000   0.1379006   0.1090750), wk =   0.0416667
        k(    2) = (   0.1250000   0.1379006   0.3272251), wk =   0.0416667
        k(    3) = (   0.1250000   0.4137018   0.1090750), wk =   0.0416667
        k(    4) = (   0.1250000   0.4137018   0.3272251), wk =   0.0416667
        k(    5) = (   0.1250000   0.6895030   0.1090750), wk =   0.0416667
        k(    6) = (   0.1250000   0.6895030   0.3272251), wk =   0.0416667
        k(    7) = (   0.3750000   0.1379006   0.1090750), wk =   0.0416667
        k(    8) = (   0.3750000   0.1379006   0.3272251), wk =   0.0416667
        k(    9) = (   0.3750000   0.4137018   0.1090750), wk =   0.0416667
        k(   10) = (   0.3750000   0.4137018   0.3272251), wk =   0.0416667
        k(   11) = (   0.3750000   0.6895030   0.1090750), wk =   0.0416667
        k(   12) = (   0.3750000   0.6895030   0.3272251), wk =   0.0416667
        k(   13) = (  -0.1250000  -0.1379006   0.1090750), wk =   0.0416667
        k(   14) = (  -0.1250000   0.1379006  -0.1090750), wk =   0.0416667
        k(   15) = (   0.1250000  -0.1379006  -0.1090750), wk =   0.0416667
        k(   16) = (  -0.1250000  -0.1379006   0.3272251), wk =   0.0416667
        k(   17) = (  -0.1250000   0.1379006  -0.3272251), wk =   0.0416667
        k(   18) = (   0.1250000  -0.1379006  -0.3272251), wk =   0.0416667
        k(   19) = (  -0.1250000  -0.4137018   0.1090750), wk =   0.0416667
        k(   20) = (  -0.1250000   0.4137018  -0.1090750), wk =   0.0416667
        k(   21) = (   0.1250000  -0.4137018  -0.1090750), wk =   0.0416667
        k(   22) = (  -0.1250000  -0.4137018   0.3272251), wk =   0.0416667
        k(   23) = (  -0.1250000   0.4137018  -0.3272251), wk =   0.0416667
        k(   24) = (   0.1250000  -0.4137018  -0.3272251), wk =   0.0416667
        k(   25) = (  -0.1250000  -0.6895030   0.1090750), wk =   0.0416667
        k(   26) = (  -0.1250000   0.6895030  -0.1090750), wk =   0.0416667
        k(   27) = (   0.1250000  -0.6895030  -0.1090750), wk =   0.0416667
        k(   28) = (  -0.1250000  -0.6895030   0.3272251), wk =   0.0416667
        k(   29) = (  -0.1250000   0.6895030  -0.3272251), wk =   0.0416667
        k(   30) = (   0.1250000  -0.6895030  -0.3272251), wk =   0.0416667
        k(   31) = (  -0.3750000  -0.1379006   0.1090750), wk =   0.0416667
        k(   32) = (  -0.3750000   0.1379006  -0.1090750), wk =   0.0416667
        k(   33) = (   0.3750000  -0.1379006  -0.1090750), wk =   0.0416667
        k(   34) = (  -0.3750000  -0.1379006   0.3272251), wk =   0.0416667
        k(   35) = (  -0.3750000   0.1379006  -0.3272251), wk =   0.0416667
        k(   36) = (   0.3750000  -0.1379006  -0.3272251), wk =   0.0416667
        k(   37) = (  -0.3750000  -0.4137018   0.1090750), wk =   0.0416667
        k(   38) = (  -0.3750000   0.4137018  -0.1090750), wk =   0.0416667
        k(   39) = (   0.3750000  -0.4137018  -0.1090750), wk =   0.0416667
        k(   40) = (  -0.3750000  -0.4137018   0.3272251), wk =   0.0416667
        k(   41) = (  -0.3750000   0.4137018  -0.3272251), wk =   0.0416667
        k(   42) = (   0.3750000  -0.4137018  -0.3272251), wk =   0.0416667
        k(   43) = (  -0.3750000  -0.6895030   0.1090750), wk =   0.0416667
        k(   44) = (  -0.3750000   0.6895030  -0.1090750), wk =   0.0416667
        k(   45) = (   0.3750000  -0.6895030  -0.1090750), wk =   0.0416667
        k(   46) = (  -0.3750000  -0.6895030   0.3272251), wk =   0.0416667
        k(   47) = (  -0.3750000   0.6895030  -0.3272251), wk =   0.0416667
        k(   48) = (   0.3750000  -0.6895030  -0.3272251), wk =   0.0416667

     Largest allocated arrays     est. size (Mb)     dimensions
     Largest temporary arrays     est. size (Mb)     dimensions

     Initial potential from superposition of free atoms

     starting charge   47.97855, renormalised to   48.00000
     Starting wfc are   60 randomized atomic wfcs

     Self-consistent Calculation

     iteration #  1     ecut=   120.00 Ry     beta=0.30
     Davidson diagonalization with overlap
     ethr =  1.00E-02,  avg # of iterations =  2.0

     total energy              =    -303.21088493 Ry
     Harris-Foulkes estimate   =    -303.27032374 Ry
     estimated scf accuracy    <       0.53593020 Ry

[...]

     End of self-consistent calculation

          k = 0.1250 0.1379 0.1091 ( 18078 PWs)   bands (ev):

   -33.1578 -33.1077 -33.0935 -33.0770 -13.8691 -13.7675 -13.7210 -13.5900
   -13.5139 -13.4786 -13.4723 -13.4122 -13.3941 -13.3744 -13.3625 -13.3587
     1.0187   3.4034   3.8456   4.4213   4.8345   5.0437   5.2978   6.0954

[...]

          k =-0.1250-0.1379 0.1091 ( 18078 PWs)   bands (ev):

[...]

!    total energy              =    -303.13443646 Ry
     Harris-Foulkes estimate   =    -303.13443611 Ry
     estimated scf accuracy    <       0.00000047 Ry

     The total energy is the sum of the following terms:

     one-electron contribution =    -101.25594857 Ry
     hartree contribution      =      62.12990863 Ry
     xc contribution           =     -47.36989031 Ry
     ewald contribution        =    -216.63850622 Ry

     convergence has been achieved in   8 iterations

     Forces acting on atoms (Ry/au):

     atom    1 type  2   force =     0.00192974   -0.00111383    0.00641826
     atom    2 type  2   force =    -0.00226396   -0.00001564    0.00474684
     atom    3 type  2   force =     0.00295142    0.00001407   -0.00695142
     atom    4 type  2   force =    -0.00269273    0.00111628   -0.00635846
     atom    5 type  1   force =    -0.00139483   -0.00000095    0.00047077
     atom    6 type  1   force =     0.00116865    0.00000044   -0.00014409
     atom    7 type  1   force =    -0.00119894   -0.00000082   -0.00012677
     atom    8 type  1   force =     0.00090204    0.00000072    0.00442653
     atom    9 type  1   force =    -0.00070270   -0.00001252    0.00351160
     atom   10 type  1   force =     0.00056835    0.00001209    0.00344350
     atom   11 type  1   force =    -0.00006604   -0.00001247   -0.00600610
     atom   12 type  1   force =     0.00079901    0.00001263   -0.00343067

     Total force =     0.016619     Total SCF correction =     0.002522
     SCF correction compared to forces is large: reduce conv_thr to get better values

     entering subroutine stress ...

          total   stress  (Ry/bohr**3)                   (kbar)     P=  121.57
   0.00078626  -0.00000000  -0.00000407        115.66     -0.00     -0.60
  -0.00000000   0.00083857   0.00000006         -0.00    123.36      0.01
  -0.00000407   0.00000006   0.00085433         -0.60      0.01    125.68

     BFGS Geometry Optimization

     number of scf cycles    =   1
     number of bfgs steps    =   0

     enthalpy new            =    -302.5803792771 Ry

     new trust radius        =       0.0249226049 bohr
     new conv_thr            =       0.0000010000 Ry

     new unit-cell volume =    824.03995 a.u.^3 (   122.11012 Ang^3 )

CELL_PARAMETERS (alat= 10.55800000)
   1.002661902  -0.000000013  -0.000101636
  -0.000000008   0.606698832   0.000000937
  -0.000116475   0.000001777   1.151000796

ATOMIC_POSITIONS (crystal)
Ca       0.240182775   0.250000000   0.110430458    1   0   1
Ca       0.259785569  -0.250000000   0.610292318    1   0   1
[...]

     CASE: enthalpy_new < enthalpy_old

     new trust radius        =       0.0022173971 bohr
     new conv_thr            =       0.0000000100 Ry

     new unit-cell volume =    832.86075 a.u.^3 (   123.41723 Ang^3 )

[...]

ATOMIC_POSITIONS (crystal)
Ca       0.241672573   0.250000008   0.112978206    1   0   1
Ca       0.258212988  -0.249999985   0.613084417    1   0   1
Ca       0.741690374   0.249999978   0.386960948    1   0   1
Ca      -0.241629737  -0.250000015  -0.112914666    1   0   1
H        0.353202464   0.250000007   0.428565093    1   0   1
H        0.146754096  -0.250000010   0.928570914    1   0   1
H        0.853294155   0.250000005   0.071346927    1   0   1
H       -0.353252294  -0.249999984  -0.428496150    1   0   1
H        0.972664545   0.250000011   0.679509022    1   0   1
H       -0.472616043  -0.250000003   1.179628356    1   0   1
H        1.472694777   0.249999999  -0.179514835    1   0   1
H       -0.972687899  -0.250000011  -0.679718232    1   0   1

     Writing output data file CaH2_ambient.save
     NEW-OLD atomic charge density approx. for the potential
     NEW k-points:
        k(    1) = (   0.1249853   0.1370298   0.1074312), wk =   0.0416667
        k(    2) = (   0.1249813   0.1370307   0.3222951), wk =   0.0416667
        k(    3) = (   0.1249857   0.4110880   0.1074323), wk =   0.0416667
        k(    4) = (   0.1249817   0.4110889   0.3222962), wk =   0.0416667
        k(    5) = (   0.1249862   0.6851462   0.1074334), wk =   0.0416667
        k(    6) = (   0.1249822   0.6851471   0.3222973), wk =   0.0416667
        k(    7) = (   0.3749594   0.1370302   0.1074284), wk =   0.0416667
        k(    8) = (   0.3749554   0.1370311   0.3222923), wk =   0.0416667
        k(    9) = (   0.3749598   0.4110884   0.1074295), wk =   0.0416667
        k(   10) = (   0.3749558   0.4110893   0.3222935), wk =   0.0416667
        k(   11) = (   0.3749603   0.6851467   0.1074307), wk =   0.0416667
        k(   12) = (   0.3749563   0.6851475   0.3222946), wk =   0.0416667
        k(   13) = (  -0.1249893  -0.1370289   0.1074328), wk =   0.0416667
        k(   14) = (  -0.1249848   0.1370285  -0.1074300), wk =   0.0416667
        k(   15) = (   0.1249888  -0.1370293  -0.1074339), wk =   0.0416667
        k(   16) = (  -0.1249933  -0.1370280   0.3222967), wk =   0.0416667
        k(   17) = (  -0.1249808   0.1370276  -0.3222940), wk =   0.0416667
        k(   18) = (   0.1249928  -0.1370302  -0.3222978), wk =   0.0416667
        k(   19) = (  -0.1249898  -0.4110871   0.1074316), wk =   0.0416667
        k(   20) = (  -0.1249843   0.4110867  -0.1074289), wk =   0.0416667
        k(   21) = (   0.1249884  -0.4110876  -0.1074350), wk =   0.0416667
        k(   22) = (  -0.1249938  -0.4110862   0.3222956), wk =   0.0416667
        k(   23) = (  -0.1249803   0.4110858  -0.3222928), wk =   0.0416667
        k(   24) = (   0.1249924  -0.4110885  -0.3222989), wk =   0.0416667
        k(   25) = (  -0.1249902  -0.6851453   0.1074305), wk =   0.0416667
        k(   26) = (  -0.1249839   0.6851449  -0.1074278), wk =   0.0416667
        k(   27) = (   0.1249879  -0.6851458  -0.1074361), wk =   0.0416667
        k(   28) = (  -0.1249942  -0.6851444   0.3222944), wk =   0.0416667
        k(   29) = (  -0.1249799   0.6851440  -0.3222917), wk =   0.0416667
        k(   30) = (   0.1249919  -0.6851467  -0.3223000), wk =   0.0416667
        k(   31) = (  -0.3749634  -0.1370293   0.1074355), wk =   0.0416667
        k(   32) = (  -0.3749589   0.1370280  -0.1074273), wk =   0.0416667
        k(   33) = (   0.3749629  -0.1370289  -0.1074366), wk =   0.0416667
        k(   34) = (  -0.3749674  -0.1370284   0.3222994), wk =   0.0416667
        k(   35) = (  -0.3749549   0.1370271  -0.3222912), wk =   0.0416667
        k(   36) = (   0.3749669  -0.1370298  -0.3223005), wk =   0.0416667
        k(   37) = (  -0.3749638  -0.4110875   0.1074344), wk =   0.0416667
        k(   38) = (  -0.3749584   0.4110863  -0.1074262), wk =   0.0416667
        k(   39) = (   0.3749624  -0.4110872  -0.1074377), wk =   0.0416667
        k(   40) = (  -0.3749679  -0.4110866   0.3222983), wk =   0.0416667
        k(   41) = (  -0.3749544   0.4110854  -0.3222901), wk =   0.0416667
        k(   42) = (   0.3749665  -0.4110880  -0.3223016), wk =   0.0416667
        k(   43) = (  -0.3749643  -0.6851458   0.1074332), wk =   0.0416667
        k(   44) = (  -0.3749580   0.6851445  -0.1074251), wk =   0.0416667
        k(   45) = (   0.3749620  -0.6851454  -0.1074388), wk =   0.0416667
        k(   46) = (  -0.3749683  -0.6851449   0.3222972), wk =   0.0416667
        k(   47) = (  -0.3749540   0.6851436  -0.3222890), wk =   0.0416667
        k(   48) = (   0.3749660  -0.6851463  -0.3223028), wk =   0.0416667
     extrapolated charge   47.99829, renormalised to   48.00000

[...]

     Threshold (ethr) on eigenvalues was too large:
     Diagonalizing with lowered threshold

     Davidson diagonalization with overlap
     ethr =  2.60E-09,  avg # of iterations =  4.0

[...]

     bfgs converged in  14 scf cycles and  13 bfgs steps
     (criteria: energy < 0.10E-03, force < 0.10E-02, cell < 0.50E+00)

     End of BFGS Geometry Optimization

     Final enthalpy =    -302.5829435755 Ry
Begin final coordinates
     new unit-cell volume =    832.86075 a.u.^3 (   123.41723 Ang^3 )

CELL_PARAMETERS (alat= 10.55800000)
   1.000103632  -0.000001701   0.000018665
  -0.000001025   0.608143267  -0.000002522
   0.000012690  -0.000004753   1.163527138

ATOMIC_POSITIONS (crystal)
Ca       0.241672573   0.250000008   0.112978206    1   0   1
Ca       0.258212988  -0.249999985   0.613084417    1   0   1
Ca       0.741690374   0.249999978   0.386960948    1   0   1
Ca      -0.241629737  -0.250000015  -0.112914666    1   0   1
H        0.353202464   0.250000007   0.428565093    1   0   1
H        0.146754096  -0.250000010   0.928570914    1   0   1
H        0.853294155   0.250000005   0.071346927    1   0   1
H       -0.353252294  -0.249999984  -0.428496150    1   0   1
H        0.972664545   0.250000011   0.679509022    1   0   1
H       -0.472616043  -0.250000003   1.179628356    1   0   1
H        1.472694777   0.249999999  -0.179514835    1   0   1
H       -0.972687899  -0.250000011  -0.679718232    1   0   1
End final coordinates

     A final scf calculation at the relaxed structure.
     The G-vectors are recalculated for the final unit cell
     Results may differ from those at the preceding step.

     bravais-lattice index     =            8
     lattice parameter (alat)  =      10.5580  a.u.
     unit-cell volume          =     832.8608 (a.u.)^3
     number of atoms/cell      =           12
     number of atomic types    =            2
     number of electrons       =        48.00
     number of Kohn-Sham states=           24
     kinetic-energy cutoff     =     120.0000  Ry
     charge density cutoff     =     480.0000  Ry
     convergence threshold     =      1.0E-08
     mixing beta               =       0.3000
     number of iterations used =           16  local-TF  mixing
     Exchange-correlation      = BLYP ( 1 3 1 3 0)
     EXX-fraction              =        0.00

     celldm(1)=  10.558000  celldm(2)=   0.604300  celldm(3)=   1.146000
     celldm(4)=   0.000000  celldm(5)=   0.000000  celldm(6)=   0.000000

     crystal axes: (cart. coord. in units of alat)
               a(1) = (   1.000104  -0.000002   0.000019 )
               a(2) = (  -0.000001   0.608143  -0.000003 )
               a(3) = (   0.000013  -0.000005   1.163527 )

     reciprocal axes: (cart. coord. in units 2 pi/alat)
               b(1) = (  0.999896  0.000002 -0.000011 )
               b(2) = (  0.000003  1.644349  0.000007 )
               b(3) = ( -0.000016  0.000004  0.859456 )

     PseudoPot. # 1 for H  read from file:
     /home/ilia/espresso/pseudo/H.blyp-vbc.UPF
     MD5 check sum: 64d25ad537c4b939b17faee1147b797b
     Pseudo is Norm-conserving, Zval =  1.0
     Generated by new atomic code, or converted to UPF format
     Using radial grid of  243 points,  0 beta functions with:

     PseudoPot. # 2 for Ca read from file:
     /home/ilia/espresso/pseudo/Ca.blyp-sp-hgh.UPF
     MD5 check sum: 357a6b692114ea82b84239caae8ecfc0
     Pseudo is Norm-conserving, Zval = 10.0
     Generated in analytical, separable form
     Using radial grid of 1169 points,  5 beta functions with:
                l(1) =   0
                l(2) =   0
                l(3) =   1
                l(4) =   1
                l(5) =   2

     atomic species   valence    mass     pseudopotential
        H              1.00     1.00700     H ( 1.00)
        Ca            10.00    40.07800     Ca( 1.00)

     No symmetry found
          (note:  1 additional sym.ops. were found but ignored
           their fractional translations are incommensurate with FFT grid)

   Cartesian axes

     site n.     atom                  positions (alat units)
         1           Ca  tau(   1) = (   0.2416988   0.1520349   0.1314571  )
         2           Ca  tau(   2) = (   0.2582478  -0.1520392   0.7133458  )
         3           Ca  tau(   3) = (   0.7417719   0.1520327   0.4502528  )
         4           Ca  tau(   4) = (  -0.2416560  -0.1520349  -0.1313832  )
         5           H   tau(   5) = (   0.3532442   0.1520332   0.4986531  )
         6           H   tau(   6) = (   0.1467813  -0.1520405   1.0804208  )
         7           H   tau(   7) = (   0.8533832   0.1520340   0.0830294  )
         8           H   tau(   8) = (  -0.3532941  -0.1520332  -0.4985729  )
         9           H   tau(   9) = (   0.9727737   0.1520309   0.7906447  )
        10           H   tau(  10) = (  -0.4726498  -0.1520406   1.3725214  )
        11           H   tau(  11) = (   1.4728449   0.1520342  -0.2088435  )
        12           H   tau(  12) = (  -0.9727971  -0.1520309  -0.7908881  )

     number of k points=    48
                       cart. coord. in units 2pi/alat
        k(    1) = (   0.1249853   0.1370298   0.1074312), wk =   0.0416667
        k(    2) = (   0.1249813   0.1370307   0.3222951), wk =   0.0416667
        k(    3) = (   0.1249857   0.4110880   0.1074323), wk =   0.0416667
        k(    4) = (   0.1249817   0.4110889   0.3222962), wk =   0.0416667
        k(    5) = (   0.1249862   0.6851462   0.1074334), wk =   0.0416667
        k(    6) = (   0.1249822   0.6851471   0.3222973), wk =   0.0416667
        k(    7) = (   0.3749594   0.1370302   0.1074284), wk =   0.0416667
        k(    8) = (   0.3749554   0.1370311   0.3222923), wk =   0.0416667
        k(    9) = (   0.3749598   0.4110884   0.1074295), wk =   0.0416667
        k(   10) = (   0.3749558   0.4110893   0.3222935), wk =   0.0416667
        k(   11) = (   0.3749603   0.6851467   0.1074307), wk =   0.0416667
        k(   12) = (   0.3749563   0.6851475   0.3222946), wk =   0.0416667
        k(   13) = (  -0.1249893  -0.1370289   0.1074328), wk =   0.0416667
        k(   14) = (  -0.1249848   0.1370285  -0.1074300), wk =   0.0416667
        k(   15) = (   0.1249888  -0.1370293  -0.1074339), wk =   0.0416667
        k(   16) = (  -0.1249933  -0.1370280   0.3222967), wk =   0.0416667
        k(   17) = (  -0.1249808   0.1370276  -0.3222940), wk =   0.0416667
        k(   18) = (   0.1249928  -0.1370302  -0.3222978), wk =   0.0416667
        k(   19) = (  -0.1249898  -0.4110871   0.1074316), wk =   0.0416667
        k(   20) = (  -0.1249843   0.4110867  -0.1074289), wk =   0.0416667
        k(   21) = (   0.1249884  -0.4110876  -0.1074350), wk =   0.0416667
        k(   22) = (  -0.1249938  -0.4110862   0.3222956), wk =   0.0416667
        k(   23) = (  -0.1249803   0.4110858  -0.3222928), wk =   0.0416667
        k(   24) = (   0.1249924  -0.4110885  -0.3222989), wk =   0.0416667
        k(   25) = (  -0.1249902  -0.6851453   0.1074305), wk =   0.0416667
        k(   26) = (  -0.1249839   0.6851449  -0.1074278), wk =   0.0416667
        k(   27) = (   0.1249879  -0.6851458  -0.1074361), wk =   0.0416667
        k(   28) = (  -0.1249942  -0.6851444   0.3222944), wk =   0.0416667
        k(   29) = (  -0.1249799   0.6851440  -0.3222917), wk =   0.0416667
        k(   30) = (   0.1249919  -0.6851467  -0.3223000), wk =   0.0416667
        k(   31) = (  -0.3749634  -0.1370293   0.1074355), wk =   0.0416667
        k(   32) = (  -0.3749589   0.1370280  -0.1074273), wk =   0.0416667
        k(   33) = (   0.3749629  -0.1370289  -0.1074366), wk =   0.0416667
        k(   34) = (  -0.3749674  -0.1370284   0.3222994), wk =   0.0416667
        k(   35) = (  -0.3749549   0.1370271  -0.3222912), wk =   0.0416667
        k(   36) = (   0.3749669  -0.1370298  -0.3223005), wk =   0.0416667
        k(   37) = (  -0.3749638  -0.4110875   0.1074344), wk =   0.0416667
        k(   38) = (  -0.3749584   0.4110863  -0.1074262), wk =   0.0416667
        k(   39) = (   0.3749624  -0.4110872  -0.1074377), wk =   0.0416667
        k(   40) = (  -0.3749679  -0.4110866   0.3222983), wk =   0.0416667
        k(   41) = (  -0.3749544   0.4110854  -0.3222901), wk =   0.0416667
        k(   42) = (   0.3749665  -0.4110880  -0.3223016), wk =   0.0416667
        k(   43) = (  -0.3749643  -0.6851458   0.1074332), wk =   0.0416667
        k(   44) = (  -0.3749580   0.6851445  -0.1074251), wk =   0.0416667
        k(   45) = (   0.3749620  -0.6851454  -0.1074388), wk =   0.0416667
        k(   46) = (  -0.3749683  -0.6851449   0.3222972), wk =   0.0416667
        k(   47) = (  -0.3749540   0.6851436  -0.3222890), wk =   0.0416667
        k(   48) = (   0.3749660  -0.6851463  -0.3223028), wk =   0.0416667

     Largest allocated arrays     est. size (Mb)     dimensions
     Largest temporary arrays     est. size (Mb)     dimensions

     Initial potential from superposition of free atoms

     starting charge   47.97855, renormalised to   48.00000
     Starting wfc are   60 randomized atomic wfcs

     Writing output data file CaH2_ambient.save

     Self-consistent Calculation

[...]

     total energy              =    -303.14981403 Ry
     Harris-Foulkes estimate   =    -303.14981403 Ry
     estimated scf accuracy    <       0.00000002 Ry

     iteration # 15     ecut=   120.00 Ry     beta=0.30
     Davidson diagonalization with overlap
     ethr =  4.68E-11,  avg # of iterations =  2.4

     End of self-consistent calculation

[...]

          k =-0.3750 0.6851-0.3223 ( 18505 PWs)   bands (ev):

[...]

          k = 0.3750-0.6851-0.3223 ( 18506 PWs)   bands (ev):

   -33.3811 -33.3775 -33.3655 -33.3642 -14.0942 -14.0875 -14.0436 -14.0360
   -13.8738 -13.8577 -13.8332 -13.8208 -13.7365 -13.7200 -13.7033 -13.6978
     3.4365   3.7978   3.9840   4.1937   4.4592   4.5326   4.6700   4.7140

!    total energy              =    -303.14981403 Ry
     Harris-Foulkes estimate   =    -303.14981403 Ry
     estimated scf accuracy    <          3.2E-09 Ry

     The total energy is the sum of the following terms:

     one-electron contribution =    -103.47984764 Ry
     hartree contribution      =      62.75243304 Ry
     xc contribution           =     -47.29099698 Ry
     ewald contribution        =    -215.13140245 Ry

     convergence has been achieved in  15 iterations

     Forces acting on atoms (Ry/au):

     atom    1 type  2   force =    -0.00015374   -0.00051296   -0.00018271
     atom    2 type  2   force =     0.00009645    0.00002053   -0.00018561
     atom    3 type  2   force =     0.00002458   -0.00002220    0.00003383
     atom    4 type  2   force =     0.00007850    0.00053880    0.00011481
     atom    5 type  1   force =    -0.00001540   -0.00000368   -0.00001422
     atom    6 type  1   force =     0.00001826   -0.00000474   -0.00000687
     atom    7 type  1   force =    -0.00002604   -0.00000129    0.00015191
     atom    8 type  1   force =     0.00001366   -0.00000238    0.00000597
     atom    9 type  1   force =    -0.00018472   -0.00000300    0.00020712
     atom   10 type  1   force =     0.00017469   -0.00000201    0.00012986
     atom   11 type  1   force =    -0.00021877   -0.00000405   -0.00016140
     atom   12 type  1   force =     0.00019253   -0.00000302   -0.00009270

     Total force =     0.000625     Total SCF correction =     0.000248
     SCF correction compared to forces is large: reduce conv_thr to get better values

     entering subroutine stress ...

          total   stress  (Ry/bohr**3)                   (kbar)     P=  100.23
   0.00067936  -0.00000000  -0.00000038         99.94     -0.00     -0.06
  -0.00000000   0.00068246  -0.00000000         -0.00    100.39     -0.00
  -0.00000038  -0.00000000   0.00068230         -0.06     -0.00    100.37

     Writing output data file CaH2_ambient.save

     General routines

   This run was terminated on:  15:59:39  12Jun2014

   JOB DONE.