     Program PWSCF v.5.0.2 (svn rev. 9392) starts on  3Jun2014 at 22: 4:56

     Current dimensions of program PWSCF are:
     Max number of different atomic species (ntypx) = 10
     Max number of k-points (npk) =  40000
     Max angular momentum in pseudopotentials (lmaxx) =  3
     Waiting for input...
     Reading input from standard input

     bravais-lattice index     =            8
     lattice parameter (alat)  =      11.2803  a.u.
     unit-cell volume          =     994.0292 (a.u.)^3
     number of atoms/cell      =           12
     number of atomic types    =            2
     number of electrons       =        48.00
     number of Kohn-Sham states=           24
     kinetic-energy cutoff     =      40.0000  Ry
     charge density cutoff     =     160.0000  Ry
     convergence threshold     =      1.0E-06
     mixing beta               =       0.3000
     number of iterations used =           16  local-TF  mixing
     Exchange-correlation      = PBE ( 1 4 3 4 0)
     EXX-fraction              =        0.00
     nstep                     =           50

     celldm(1)=  11.280300  celldm(2)=   0.604300  celldm(3)=   1.146000
     celldm(4)=   0.000000  celldm(5)=   0.000000  celldm(6)=   0.000000

     crystal axes: (cart. coord. in units of alat)
               a(1) = (   1.000000   0.000000   0.000000 )
               a(2) = (   0.000000   0.604300   0.000000 )
               a(3) = (   0.000000   0.000000   1.146000 )

     reciprocal axes: (cart. coord. in units 2 pi/alat)
               b(1) = (  1.000000  0.000000  0.000000 )
               b(2) = (  0.000000  1.654807  0.000000 )
               b(3) = (  0.000000  0.000000  0.872600 )

     PseudoPot. # 1 for H  read from file:
     /home/ilia/espresso/pseudo/H.pbe-sp-mt.ncpp
     MD5 check sum: 7a641936b52ccecd26bd1ad87cca5aed
     Pseudo is Norm-conserving, Zval =  1.0
     Generated by old ld1 code (numerical format)
     Using radial grid of 1076 points,  0 beta functions with:

     PseudoPot. # 2 for Ca read from file:
     /home/ilia/espresso/pseudo/Ca.pbe-sp-mt_ion2.ncpp
     MD5 check sum: 4bcd670d05521f7b178fdf0a334578ab
     Pseudo is Norm-conserving, Zval = 10.0
     Generated by old ld1 code (numerical format)
     Using radial grid of 1153 points,  1 beta functions with:
                l(1) =   1

     atomic species   valence    mass     pseudopotential
        H              1.00     1.00700     H ( 1.00)
        Ca            10.00    40.07800     Ca( 1.00)

     No symmetry found
          (note:  1 additional sym.ops. were found but ignored
           their fractional translations are incommensurate with FFT grid)

   Cartesian axes

     site n.     atom                  positions (alat units)
         1           Ca  tau(   1) = (   0.2400000   0.1510750   0.1259454  )
         2           Ca  tau(   2) = (   0.2600000  -0.1510750   0.6989454  )
         3           Ca  tau(   3) = (   0.7400000   0.1510750   0.4470546  )
         4           Ca  tau(   4) = (  -0.2400000  -0.1510750  -0.1259454  )
         5           H   tau(   5) = (   0.3557000   0.1510750   0.4887690  )
         6           H   tau(   6) = (   0.1443000  -0.1510750   1.0617690  )
         7           H   tau(   7) = (   0.8557000   0.1510750   0.0842310  )
         8           H   tau(   8) = (  -0.3557000  -0.1510750  -0.4922070  )
         9           H   tau(   9) = (   0.9754000   0.1510750   0.7752690  )
        10           H   tau(  10) = (  -0.4754000  -0.1510750   1.3482690  )
        11           H   tau(  11) = (   1.4754000   0.1510750  -0.1988310  )
        12           H   tau(  12) = (  -0.9754000  -0.1510750  -0.7752690  )

     number of k points=   108

     Number of k-points >= 100: set verbosity='high' to print them.

     Largest allocated arrays     est. size (Mb)     dimensions
     Largest temporary arrays     est. size (Mb)     dimensions

     Initial potential from superposition of free atoms

     starting charge   39.99992, renormalised to   48.00000
     Starting wfc are   24 randomized atomic wfcs

     Self-consistent Calculation

     iteration #  1     ecut=    40.00 Ry     beta=0.30
     Davidson diagonalization with overlap
     ethr =  1.00E-02,  avg # of iterations =  2.0

     total energy              =    -306.47248621 Ry
     Harris-Foulkes estimate   =    -308.75457630 Ry
     estimated scf accuracy    <      11.56521712 Ry

[...]

     End of self-consistent calculation

     Number of k-points >= 100: set verbosity='high' to print the bands.

!    total energy              =    -303.05150952 Ry
     Harris-Foulkes estimate   =    -303.05150979 Ry
     estimated scf accuracy    <       0.00000075 Ry

     The total energy is the sum of the following terms:

     one-electron contribution =    -121.74451130 Ry
     hartree contribution      =      68.07615896 Ry
     xc contribution           =     -46.61644453 Ry
     ewald contribution        =    -202.76671266 Ry

     convergence has been achieved in  10 iterations

     Forces acting on atoms (Ry/au):

     atom    1 type  2   force =    -0.00033836   -0.00114419   -0.00043883
     atom    2 type  2   force =    -0.00161341    0.00070798   -0.00142378
     atom    3 type  2   force =     0.00197308   -0.00070823   -0.00060445
     atom    4 type  2   force =    -0.00015704    0.00114508    0.00071155
     atom    5 type  1   force =    -0.00046958    0.00000139    0.00084641
     atom    6 type  1   force =     0.00029097   -0.00000126    0.00024858
     atom    7 type  1   force =    -0.00023970    0.00000111   -0.00049480
     atom    8 type  1   force =     0.00007765   -0.00000159    0.00326895
     atom    9 type  1   force =    -0.00011854    0.00000033    0.00001349
     atom   10 type  1   force =    -0.00009196   -0.00000187   -0.00002380
     atom   11 type  1   force =     0.00055668    0.00000174   -0.00216227
     atom   12 type  1   force =     0.00013020   -0.00000048    0.00005894

     Total force =     0.005519     Total SCF correction =     0.000252

     entering subroutine stress ...

          total   stress  (Ry/bohr**3)                   (kbar)     P=    9.75
   0.00006905   0.00000003  -0.00000125         10.16      0.00     -0.18
   0.00000003   0.00006412   0.00000001          0.00      9.43      0.00
  -0.00000125   0.00000001   0.00006562         -0.18      0.00      9.65

     BFGS Geometry Optimization

     number of scf cycles    =   1
     number of bfgs steps    =   0

     enthalpy new            =    -301.7000546047 Ry

     new trust radius        =       0.2042161790 bohr
     new conv_thr            =       0.0000010000 Ry

     new unit-cell volume =    900.69427 a.u.^3 (   133.46912 Ang^3 )

CELL_PARAMETERS (alat= 11.28030000)
   0.967737053   0.000000735  -0.000031358
   0.000000444   0.584728993   0.000000214
  -0.000035937   0.000000406   1.108928260

ATOMIC_POSITIONS (crystal)
Ca       0.239970004   0.249832148   0.109866054
Ca       0.259856971  -0.249896140   0.609789862
Ca       0.740174914   0.249896103   0.390053242
Ca      -0.240013921  -0.249832018  -0.109844957
H        0.355658372   0.250000203   0.426565475
H        0.144325795  -0.250000185   0.926519229
H        0.855678751   0.250000162   0.073461724
H       -0.355693117  -0.250000233  -0.429247127
H        0.975389492   0.250000049   0.676501044
H       -0.475408152  -0.250000274   1.176498159
H        1.475449350   0.250000255  -0.173667265
H       -0.975388458  -0.250000070  -0.676495440

     Writing output data file CaH2_ambient.save
     NEW-OLD atomic charge density approx. for the potential
     NEW k-points: (use verbosity='high' to print them)
     extrapolated charge   43.85498, renormalised to   48.00000

[...]

     enthalpy old            =    -301.7000546047 Ry
     enthalpy new            =    -301.8008834688 Ry

     CASE: enthalpy_new < enthalpy_old

[...]

     WARNING: bfgs curvature condition failed, Theta= 0.991
     new trust radius        =       0.0124422114 bohr
     new conv_thr            =       0.0000000577 Ry

[...]

     Threshold (ethr) on eigenvalues was too large:
     Diagonalizing with lowered threshold

     Davidson diagonalization with overlap
     ethr =  6.75E-08,  avg # of iterations =  1.5

[...]

     Total force =     0.001731     Total SCF correction =     0.000262
     SCF correction compared to forces is large: reduce conv_thr to get better values

[...]

     number of scf cycles    =  26
     number of bfgs steps    =  25

     enthalpy old            =    -301.8577716283 Ry
     enthalpy new            =    -301.8577786116 Ry

     CASE: enthalpy_new < enthalpy_old

     new trust radius        =       0.0045673710 bohr
     new conv_thr            =       0.0000000100 Ry

     new unit-cell volume =    777.40689 a.u.^3 (   115.19981 Ang^3 )

[...]

ATOMIC_POSITIONS (crystal)
Ca       0.246802514   0.249554349   0.105365519
Ca       0.253262982  -0.249922069   0.605361873
Ca       0.746656909   0.249917419   0.394690677
Ca      -0.246768826  -0.249562103  -0.105301375
H        0.338408052   0.250106587   0.425582966
H        0.161560420  -0.250269234   0.925578807
H        0.838426086   0.250287024   0.074322624
H       -0.338382116  -0.250121509  -0.425581084
H        0.976515543   0.250049070   0.696819911
H       -0.476479549  -0.250168818   1.196728153
H        1.476488133   0.250178378  -0.196723346
H       -0.976490148  -0.250049094  -0.696844724

     Writing output data file CaH2_ambient.save
     NEW-OLD atomic charge density approx. for the potential
     NEW k-points: (use verbosity='high' to print them)
     extrapolated charge   47.98849, renormalised to   48.00000

[...]

     Threshold (ethr) on eigenvalues was too large:
     Diagonalizing with lowered threshold

     Davidson diagonalization with overlap
     ethr =  1.44E-08,  avg # of iterations =  2.6

[...]

     Total force =     0.000679     Total SCF correction =     0.000190
     SCF correction compared to forces is large: reduce conv_thr to get better values

[...]

     bfgs converged in  27 scf cycles and  26 bfgs steps
     (criteria: energy < 0.10E-03, force < 0.10E-02, cell < 0.50E+00)

     End of BFGS Geometry Optimization

     Final enthalpy =    -301.8577812676 Ry
Begin final coordinates
     new unit-cell volume =    777.40689 a.u.^3 (   115.19981 Ang^3 )

CELL_PARAMETERS (alat= 11.28030000)
   0.886687334  -0.000071742   0.000163456
  -0.000040176   0.570798625   0.000046511
   0.000129906   0.000071794   1.070121345

ATOMIC_POSITIONS (crystal)
Ca       0.246802514   0.249554349   0.105365519
Ca       0.253262982  -0.249922069   0.605361873
Ca       0.746656909   0.249917419   0.394690677
Ca      -0.246768826  -0.249562103  -0.105301375
H        0.338408052   0.250106587   0.425582966
H        0.161560420  -0.250269234   0.925578807
H        0.838426086   0.250287024   0.074322624
H       -0.338382116  -0.250121509  -0.425581084
H        0.976515543   0.250049070   0.696819911
H       -0.476479549  -0.250168818   1.196728153
H        1.476488133   0.250178378  -0.196723346
H       -0.976490148  -0.250049094  -0.696844724
End final coordinates

     A final scf calculation at the relaxed structure.
     The G-vectors are recalculated for the final unit cell
     Results may differ from those at the preceding step.

     bravais-lattice index     =            8
     lattice parameter (alat)  =      11.2803  a.u.
     unit-cell volume          =     777.4069 (a.u.)^3
     number of atoms/cell      =           12
     number of atomic types    =            2
     number of electrons       =        48.00
     number of Kohn-Sham states=           24
     kinetic-energy cutoff     =      40.0000  Ry
     charge density cutoff     =     160.0000  Ry
     convergence threshold     =      1.0E-08
     mixing beta               =       0.3000
     number of iterations used =           16  local-TF  mixing
     Exchange-correlation      = PBE ( 1 4 3 4 0)
     EXX-fraction              =        0.00

     celldm(1)=  11.280300  celldm(2)=   0.604300  celldm(3)=   1.146000
     celldm(4)=   0.000000  celldm(5)=   0.000000  celldm(6)=   0.000000

     crystal axes: (cart. coord. in units of alat)
               a(1) = (   0.886687  -0.000072   0.000163 )
               a(2) = (  -0.000040   0.570799   0.000047 )
               a(3) = (   0.000130   0.000072   1.070121 )

     reciprocal axes: (cart. coord. in units 2 pi/alat)
               b(1) = (  1.127793  0.000079 -0.000137 )
               b(2) = (  0.000142  1.751931 -0.000118 )
               b(3) = ( -0.000172 -0.000076  0.934473 )

     PseudoPot. # 1 for H  read from file:
     /home/ilia/espresso/pseudo/H.pbe-sp-mt.ncpp
     MD5 check sum: 7a641936b52ccecd26bd1ad87cca5aed
     Pseudo is Norm-conserving, Zval =  1.0
     Generated by old ld1 code (numerical format)
     Using radial grid of 1076 points,  0 beta functions with:

     PseudoPot. # 2 for Ca read from file:
     /home/ilia/espresso/pseudo/Ca.pbe-sp-mt_ion2.ncpp
     MD5 check sum: 4bcd670d05521f7b178fdf0a334578ab
     Pseudo is Norm-conserving, Zval = 10.0
     Generated by old ld1 code (numerical format)
     Using radial grid of 1153 points,  1 beta functions with:
                l(1) =   1

     atomic species   valence    mass     pseudopotential
        H              1.00     1.00700     H ( 1.00)
        Ca            10.00    40.07800     Ca( 1.00)

     No symmetry found
          (note:  1 additional sym.ops. were found but ignored
           their fractional translations are incommensurate with FFT grid)

   Cartesian axes

     site n.     atom                  positions (alat units)
         1           Ca  tau(   1) = (   0.2188403   0.1424351   0.1128058  )
         2           Ca  tau(   2) = (   0.2246538  -0.1426299   0.6478404  )
         3           Ca  tau(   3) = (   0.6620925   0.1426273   0.4225006  )
         4           Ca  tau(   4) = (  -0.2188104  -0.1424396  -0.1127372  )
         5           H   tau(   5) = (   0.3001074   0.1427668   0.4554924  )
         6           H   tau(   6) = (   0.1433839  -0.1427985   0.9904964  )
         7           H   tau(   7) = (   0.7434214   0.1428087   0.0796829  )
         8           H   tau(   8) = (  -0.3000844  -0.1427753  -0.4554903  )
         9           H   tau(   9) = (   0.8659444   0.1427076   0.7458531  )
        10           H   tau(  10) = (  -0.4223229  -0.1426759   1.2805548  )
        11           H   tau(  11) = (   1.3091477   0.1426814  -0.2102649  )
        12           H   tau(  12) = (  -0.8659219  -0.1427077  -0.7458797  )

     number of k points=   108

     Number of k-points >= 100: set verbosity='high' to print them.

     Largest allocated arrays     est. size (Mb)     dimensions
     Largest temporary arrays     est. size (Mb)     dimensions

     Initial potential from superposition of free atoms

     starting charge   39.99992, renormalised to   48.00000
     Starting wfc are   24 randomized atomic wfcs

     Writing output data file CaH2_ambient.save

     Self-consistent Calculation

[...]

     total energy              =    -302.89991263 Ry
     Harris-Foulkes estimate   =    -302.89991266 Ry
     estimated scf accuracy    <       0.00000008 Ry

     iteration # 12     ecut=    40.00 Ry     beta=0.30
     Davidson diagonalization with overlap
     ethr =  1.62E-10,  avg # of iterations =  2.0

     End of self-consistent calculation

     Number of k-points >= 100: set verbosity='high' to print the bands.

!    total energy              =    -302.89991264 Ry
     Harris-Foulkes estimate   =    -302.89991264 Ry
     estimated scf accuracy    <          2.3E-09 Ry

     The total energy is the sum of the following terms:

     one-electron contribution =     -94.90750520 Ry
     hartree contribution      =      59.69454554 Ry
     xc contribution           =     -47.33003901 Ry
     ewald contribution        =    -220.35691397 Ry

     convergence has been achieved in  12 iterations

     Forces acting on atoms (Ry/au):

     atom    1 type  2   force =    -0.00005920    0.00127750    0.00055768
     atom    2 type  2   force =     0.00005470   -0.00069837    0.00020052
     atom    3 type  2   force =     0.00013822    0.00069588   -0.00038429
     atom    4 type  2   force =    -0.00006693   -0.00126569   -0.00077445
     atom    5 type  1   force =     0.00006584   -0.00002168    0.00021429
     atom    6 type  1   force =    -0.00005457   -0.00000722    0.00026106
     atom    7 type  1   force =     0.00009212   -0.00000961    0.00001849
     atom    8 type  1   force =    -0.00011881    0.00003349   -0.00011714
     atom    9 type  1   force =    -0.00000334   -0.00001122   -0.00018609
     atom   10 type  1   force =    -0.00007720    0.00002905   -0.00002331
     atom   11 type  1   force =     0.00007359   -0.00003380    0.00003526
     atom   12 type  1   force =    -0.00004442    0.00001166    0.00019798

     Total force =     0.002363     Total SCF correction =     0.000030

     entering subroutine stress ...

          total   stress  (Ry/bohr**3)                   (kbar)     P=  191.55
   0.00130715   0.00000064  -0.00000152        192.29      0.09     -0.22
   0.00000064   0.00129879   0.00000035          0.09    191.06      0.05
  -0.00000152   0.00000035   0.00130042         -0.22      0.05    191.30

     Writing output data file CaH2_ambient.save

     General routines

   This run was terminated on:   2: 8:34   4Jun2014

   JOB DONE.