     Program PWSCF v.5.0.2 (svn rev. 9392) starts on  3Jun2014 at 19:15: 0

     Current dimensions of program PWSCF are:
     Max number of different atomic species (ntypx) = 10
     Max number of k-points (npk) =  40000
     Max angular momentum in pseudopotentials (lmaxx) =  3
     Waiting for input...
     Reading input from standard input

     bravais-lattice index     =            8
     lattice parameter (alat)  =      11.2803  a.u.
     unit-cell volume          =     994.0292 (a.u.)^3
     number of atoms/cell      =           12
     number of atomic types    =            2
     number of electrons       =        48.00
     number of Kohn-Sham states=           24
     kinetic-energy cutoff     =      40.0000  Ry
     charge density cutoff     =     160.0000  Ry
     convergence threshold     =      1.0E-06
     mixing beta               =       0.3000
     number of iterations used =           16  local-TF  mixing
     Exchange-correlation      = PBE ( 1 4 3 4 0)
     EXX-fraction              =        0.00
     nstep                     =           50

     celldm(1)=  11.280300  celldm(2)=   0.604300  celldm(3)=   1.146000
     celldm(4)=   0.000000  celldm(5)=   0.000000  celldm(6)=   0.000000

     crystal axes: (cart. coord. in units of alat)
               a(1) = (   1.000000   0.000000   0.000000 )
               a(2) = (   0.000000   0.604300   0.000000 )
               a(3) = (   0.000000   0.000000   1.146000 )

     reciprocal axes: (cart. coord. in units 2 pi/alat)
               b(1) = (  1.000000  0.000000  0.000000 )
               b(2) = (  0.000000  1.654807  0.000000 )
               b(3) = (  0.000000  0.000000  0.872600 )

     PseudoPot. # 1 for H  read from file:
     /home/ilia/espresso/pseudo/H.pbe-sp-mt.ncpp
     MD5 check sum: 7a641936b52ccecd26bd1ad87cca5aed
     Pseudo is Norm-conserving, Zval =  1.0
     Generated by old ld1 code (numerical format)
     Using radial grid of 1076 points,  0 beta functions with:

     PseudoPot. # 2 for Ca read from file:
     /home/ilia/espresso/pseudo/Ca.pbe-sp-mt_ion2.ncpp
     MD5 check sum: 4bcd670d05521f7b178fdf0a334578ab
     Pseudo is Norm-conserving, Zval = 10.0
     Generated by old ld1 code (numerical format)
     Using radial grid of 1153 points,  1 beta functions with:
                l(1) =   1

     atomic species   valence    mass     pseudopotential
        H              1.00     1.00700     H ( 1.00)
        Ca            10.00    40.07800     Ca( 1.00)

     No symmetry found
          (note:  1 additional sym.ops. were found but ignored
           their fractional translations are incommensurate with FFT grid)

   Cartesian axes

     site n.     atom                  positions (alat units)
         1           Ca  tau(   1) = (   0.2400000   0.1510750   0.1259454  )
         2           Ca  tau(   2) = (   0.2600000  -0.1510750   0.6989454  )
         3           Ca  tau(   3) = (   0.7400000   0.1510750   0.4470546  )
         4           Ca  tau(   4) = (  -0.2400000  -0.1510750  -0.1259454  )
         5           H   tau(   5) = (   0.3557000   0.1510750   0.4887690  )
         6           H   tau(   6) = (   0.1443000  -0.1510750   1.0617690  )
         7           H   tau(   7) = (   0.8557000   0.1510750   0.0842310  )
         8           H   tau(   8) = (  -0.3557000  -0.1510750  -0.4922070  )
         9           H   tau(   9) = (   0.9754000   0.1510750   0.7752690  )
        10           H   tau(  10) = (  -0.4754000  -0.1510750   1.3482690  )
        11           H   tau(  11) = (   1.4754000   0.1510750  -0.1988310  )
        12           H   tau(  12) = (  -0.9754000  -0.1510750  -0.7752690  )

     number of k points=   108

     Number of k-points >= 100: set verbosity='high' to print them.

     Largest allocated arrays     est. size (Mb)     dimensions
     Largest temporary arrays     est. size (Mb)     dimensions

     Initial potential from superposition of free atoms

     starting charge   39.99992, renormalised to   48.00000
     Starting wfc are   24 randomized atomic wfcs

     Self-consistent Calculation

     iteration #  1     ecut=    40.00 Ry     beta=0.30
     Davidson diagonalization with overlap
     ethr =  1.00E-02,  avg # of iterations =  2.0

     total energy              =    -306.47248621 Ry
     Harris-Foulkes estimate   =    -308.75457630 Ry
     estimated scf accuracy    <      11.56521712 Ry

[...]

     End of self-consistent calculation

     Number of k-points >= 100: set verbosity='high' to print the bands.

!    total energy              =    -303.05150952 Ry
     Harris-Foulkes estimate   =    -303.05150979 Ry
     estimated scf accuracy    <       0.00000075 Ry

     The total energy is the sum of the following terms:

     one-electron contribution =    -121.74451130 Ry
     hartree contribution      =      68.07615896 Ry
     xc contribution           =     -46.61644453 Ry
     ewald contribution        =    -202.76671266 Ry

     convergence has been achieved in  10 iterations

     Forces acting on atoms (Ry/au):

     atom    1 type  2   force =    -0.00033836   -0.00114419   -0.00043883
     atom    2 type  2   force =    -0.00161341    0.00070798   -0.00142378
     atom    3 type  2   force =     0.00197308   -0.00070823   -0.00060445
     atom    4 type  2   force =    -0.00015704    0.00114508    0.00071155
     atom    5 type  1   force =    -0.00046958    0.00000139    0.00084641
     atom    6 type  1   force =     0.00029097   -0.00000126    0.00024858
     atom    7 type  1   force =    -0.00023970    0.00000111   -0.00049480
     atom    8 type  1   force =     0.00007765   -0.00000159    0.00326895
     atom    9 type  1   force =    -0.00011854    0.00000033    0.00001349
     atom   10 type  1   force =    -0.00009196   -0.00000187   -0.00002380
     atom   11 type  1   force =     0.00055668    0.00000174   -0.00216227
     atom   12 type  1   force =     0.00013020   -0.00000048    0.00005894

     Total force =     0.005519     Total SCF correction =     0.000252

     entering subroutine stress ...

          total   stress  (Ry/bohr**3)                   (kbar)     P=    9.75
   0.00006905   0.00000003  -0.00000125         10.16      0.00     -0.18
   0.00000003   0.00006412   0.00000001          0.00      9.43      0.00
  -0.00000125   0.00000001   0.00006562         -0.18      0.00      9.65

     BFGS Geometry Optimization

     number of scf cycles    =   1
     number of bfgs steps    =   0

     enthalpy new            =    -302.3757820642 Ry

     new trust radius        =       0.0970538865 bohr
     new conv_thr            =       0.0000010000 Ry

     new unit-cell volume =    948.98791 a.u.^3 (   140.62550 Ang^3 )

CELL_PARAMETERS (alat= 11.28030000)
   0.984731711   0.000000735  -0.000031358
   0.000000444   0.594998865   0.000000214
  -0.000035937   0.000000406   1.128404138

ATOMIC_POSITIONS (crystal)
Ca       0.239970004   0.249832148   0.109866054
Ca       0.259856971  -0.249896140   0.609789862
Ca       0.740174914   0.249896103   0.390053242
Ca      -0.240013921  -0.249832018  -0.109844957
H        0.355658372   0.250000203   0.426565475
H        0.144325795  -0.250000185   0.926519229
H        0.855678751   0.250000162   0.073461724
H       -0.355693117  -0.250000233  -0.429247127
H        0.975389492   0.250000049   0.676501044
H       -0.475408152  -0.250000274   1.176498159
H        1.475449350   0.250000255  -0.173667265
H       -0.975388458  -0.250000070  -0.676495440

     Writing output data file CaH2_ambient.save
     NEW-OLD atomic charge density approx. for the potential
     NEW k-points: (use verbosity='high' to print them)
     extrapolated charge   46.10150, renormalised to   48.00000

[...]

     enthalpy old            =    -302.3757820642 Ry
     enthalpy new            =    -302.3991690873 Ry

     CASE: enthalpy_new < enthalpy_old

[...]

     WARNING: bfgs curvature condition failed, Theta= 0.981
     new trust radius        =       0.0084602796 bohr
     new conv_thr            =       0.0000000154 Ry

[...]

     Threshold (ethr) on eigenvalues was too large:
     Diagonalizing with lowered threshold

     Davidson diagonalization with overlap
     ethr =  4.45E-08,  avg # of iterations =  1.3

[...]

     Total force =     0.001298     Total SCF correction =     0.000226
     SCF correction compared to forces is large: reduce conv_thr to get better values

[...]

     number of scf cycles    =  19
     number of bfgs steps    =  18

     enthalpy old            =    -302.4166992439 Ry
     enthalpy new            =    -302.4167038395 Ry

     CASE: enthalpy_new < enthalpy_old

     new trust radius        =       0.0039884769 bohr
     new conv_thr            =       0.0000000100 Ry

     new unit-cell volume =    871.09942 a.u.^3 (   129.08362 Ang^3 )

[...]

ATOMIC_POSITIONS (crystal)
Ca       0.242721013   0.248006220   0.109581325
Ca       0.257090523  -0.250062660   0.609673619
Ca       0.743003472   0.250070250   0.390235115
Ca      -0.242801357  -0.247998319  -0.109698794
H        0.350811492   0.250014074   0.427036028
H        0.149184837  -0.251065231   0.927063128
H        0.850833837   0.251045759   0.073045144
H       -0.350823210  -0.250014611  -0.426964165
H        0.974729962   0.249956486   0.683927953
H       -0.474717896  -0.250466025   1.183849491
H        1.474686108   0.250467235  -0.183893078
H       -0.974718780  -0.249953179  -0.683855764

     Writing output data file CaH2_ambient.save
     NEW-OLD atomic charge density approx. for the potential
     NEW k-points: (use verbosity='high' to print them)
     extrapolated charge   47.99968, renormalised to   48.00000

[...]

     Threshold (ethr) on eigenvalues was too large:
     Diagonalizing with lowered threshold

     Davidson diagonalization with overlap
     ethr =  6.64E-09,  avg # of iterations =  3.0

[...]

     Total force =     0.000956     Total SCF correction =     0.000191
     SCF correction compared to forces is large: reduce conv_thr to get better values

[...]

     bfgs converged in  20 scf cycles and  19 bfgs steps
     (criteria: energy < 0.10E-03, force < 0.10E-02, cell < 0.50E+00)

     End of BFGS Geometry Optimization

     Final enthalpy =    -302.4167092378 Ry
Begin final coordinates
     new unit-cell volume =    871.09942 a.u.^3 (   129.08362 Ang^3 )

CELL_PARAMETERS (alat= 11.28030000)
   0.946233650   0.000087040  -0.000202056
   0.000053029   0.581320328   0.000298975
  -0.000239655   0.000561689   1.103295930

ATOMIC_POSITIONS (crystal)
Ca       0.242721013   0.248006220   0.109581325
Ca       0.257090523  -0.250062660   0.609673619
Ca       0.743003472   0.250070250   0.390235115
Ca      -0.242801357  -0.247998319  -0.109698794
H        0.350811492   0.250014074   0.427036028
H        0.149184837  -0.251065231   0.927063128
H        0.850833837   0.251045759   0.073045144
H       -0.350823210  -0.250014611  -0.426964165
H        0.974729962   0.249956486   0.683927953
H       -0.474717896  -0.250466025   1.183849491
H        1.474686108   0.250467235  -0.183893078
H       -0.974718780  -0.249953179  -0.683855764
End final coordinates

     A final scf calculation at the relaxed structure.
     The G-vectors are recalculated for the final unit cell
     Results may differ from those at the preceding step.

     bravais-lattice index     =            8
     lattice parameter (alat)  =      11.2803  a.u.
     unit-cell volume          =     871.0994 (a.u.)^3
     number of atoms/cell      =           12
     number of atomic types    =            2
     number of electrons       =        48.00
     number of Kohn-Sham states=           24
     kinetic-energy cutoff     =      40.0000  Ry
     charge density cutoff     =     160.0000  Ry
     convergence threshold     =      1.0E-08
     mixing beta               =       0.3000
     number of iterations used =           16  local-TF  mixing
     Exchange-correlation      = PBE ( 1 4 3 4 0)
     EXX-fraction              =        0.00

     celldm(1)=  11.280300  celldm(2)=   0.604300  celldm(3)=   1.146000
     celldm(4)=   0.000000  celldm(5)=   0.000000  celldm(6)=   0.000000

     crystal axes: (cart. coord. in units of alat)
               a(1) = (   0.946234   0.000087  -0.000202 )
               a(2) = (   0.000053   0.581320   0.000299 )
               a(3) = (  -0.000240   0.000562   1.103296 )

     reciprocal axes: (cart. coord. in units 2 pi/alat)
               b(1) = (  1.056821 -0.000097  0.000230 )
               b(2) = ( -0.000158  1.720222 -0.000876 )
               b(3) = (  0.000194 -0.000466  0.906375 )

     PseudoPot. # 1 for H  read from file:
     /home/ilia/espresso/pseudo/H.pbe-sp-mt.ncpp
     MD5 check sum: 7a641936b52ccecd26bd1ad87cca5aed
     Pseudo is Norm-conserving, Zval =  1.0
     Generated by old ld1 code (numerical format)
     Using radial grid of 1076 points,  0 beta functions with:

     PseudoPot. # 2 for Ca read from file:
     /home/ilia/espresso/pseudo/Ca.pbe-sp-mt_ion2.ncpp
     MD5 check sum: 4bcd670d05521f7b178fdf0a334578ab
     Pseudo is Norm-conserving, Zval = 10.0
     Generated by old ld1 code (numerical format)
     Using radial grid of 1153 points,  1 beta functions with:
                l(1) =   1

     atomic species   valence    mass     pseudopotential
        H              1.00     1.00700     H ( 1.00)
        Ca            10.00    40.07800     Ca( 1.00)

     No symmetry found
          (note:  1 additional sym.ops. were found but ignored
           their fractional translations are incommensurate with FFT grid)

   Cartesian axes

     site n.     atom                  positions (alat units)
         1           Ca  tau(   1) = (   0.2296577   0.1442537   0.1209257  )
         2           Ca  tau(   2) = (   0.2431083  -0.1450017   0.6725237  )
         3           Ca  tau(   3) = (   0.7029746   0.1456548   0.4304695  )
         4           Ca  tau(   4) = (  -0.2297337  -0.1442492  -0.1210553  )
         5           H   tau(   5) = (   0.3318606   0.1456087   0.4711510  )
         6           H   tau(   6) = (   0.1409282  -0.1454156   1.0227198  )
         7           H   tau(   7) = (   0.8050834   0.1460531   0.0804935  )
         8           H   tau(   8) = (  -0.3318717  -0.1456089  -0.4710717  )
         9           H   tau(   9) = (   0.9221716   0.1457738   0.7544527  )
        10           H   tau(  10) = (  -0.4494910  -0.1449774   1.3061574  )
        11           H   tau(  11) = (   1.3954550   0.1456268  -0.2031116  )
        12           H   tau(  12) = (  -0.9221611  -0.1457718  -0.7543731  )

     number of k points=   108

     Number of k-points >= 100: set verbosity='high' to print them.

     Largest allocated arrays     est. size (Mb)     dimensions
     Largest temporary arrays     est. size (Mb)     dimensions

     Initial potential from superposition of free atoms

     starting charge   39.99992, renormalised to   48.00000
     Starting wfc are   24 randomized atomic wfcs

     Writing output data file CaH2_ambient.save

     Self-consistent Calculation

[...]

     total energy              =    -302.99972399 Ry
     Harris-Foulkes estimate   =    -302.99972404 Ry
     estimated scf accuracy    <       0.00000010 Ry

     iteration # 13     ecut=    40.00 Ry     beta=0.30
     Davidson diagonalization with overlap
     ethr =  2.17E-10,  avg # of iterations =  2.0

     End of self-consistent calculation

     Number of k-points >= 100: set verbosity='high' to print the bands.

!    total energy              =    -302.99972400 Ry
     Harris-Foulkes estimate   =    -302.99972400 Ry
     estimated scf accuracy    <          2.1E-09 Ry

     The total energy is the sum of the following terms:

     one-electron contribution =    -107.65833525 Ry
     hartree contribution      =      63.64735453 Ry
     xc contribution           =     -46.99110268 Ry
     ewald contribution        =    -211.99764060 Ry

     convergence has been achieved in  13 iterations

     Forces acting on atoms (Ry/au):

     atom    1 type  2   force =     0.00013642    0.00002422   -0.00032532
     atom    2 type  2   force =    -0.00003364    0.00000361   -0.00031533
     atom    3 type  2   force =    -0.00018820   -0.00001121    0.00057563
     atom    4 type  2   force =     0.00007068   -0.00002208    0.00061687
     atom    5 type  1   force =    -0.00002555    0.00004033    0.00001305
     atom    6 type  1   force =     0.00001321    0.00001836   -0.00002783
     atom    7 type  1   force =    -0.00007454   -0.00000652   -0.00025722
     atom    8 type  1   force =     0.00008133   -0.00003957   -0.00026068
     atom    9 type  1   force =     0.00020540    0.00001083   -0.00005894
     atom   10 type  1   force =    -0.00013768    0.00000600   -0.00009304
     atom   11 type  1   force =     0.00015207   -0.00000914    0.00010998
     atom   12 type  1   force =    -0.00019952   -0.00001482    0.00002284

     Total force =     0.001131     Total SCF correction =     0.000069

     entering subroutine stress ...

          total   stress  (Ry/bohr**3)                   (kbar)     P=   91.64
   0.00062360  -0.00000007   0.00000130         91.74     -0.01      0.19
  -0.00000007   0.00062212   0.00000028         -0.01     91.52      0.04
   0.00000130   0.00000028   0.00062309          0.19      0.04     91.66

     Writing output data file CaH2_ambient.save

     General routines

   This run was terminated on:  22: 4:56   3Jun2014

   JOB DONE.