     Program PWSCF v.5.0.2 (svn rev. 9392) starts on 11Jun2014 at 17:38:21

     Current dimensions of program PWSCF are:
     Max number of different atomic species (ntypx) = 10
     Max number of k-points (npk) =  40000
     Max angular momentum in pseudopotentials (lmaxx) =  3
     Waiting for input...
     Reading input from standard input

     bravais-lattice index     =            8
     lattice parameter (alat)  =      11.2803  a.u.
     unit-cell volume          =     994.0292 (a.u.)^3
     number of atoms/cell      =           12
     number of atomic types    =            2
     number of electrons       =        48.00
     number of Kohn-Sham states=           24
     kinetic-energy cutoff     =     120.0000  Ry
     charge density cutoff     =     480.0000  Ry
     convergence threshold     =      1.0E-06
     mixing beta               =       0.3000
     number of iterations used =           16  local-TF  mixing
     Exchange-correlation      = BLYP ( 1 3 1 3 0)
     EXX-fraction              =        0.00
     nstep                     =           50

     celldm(1)=  11.280300  celldm(2)=   0.604300  celldm(3)=   1.146000
     celldm(4)=   0.000000  celldm(5)=   0.000000  celldm(6)=   0.000000

     crystal axes: (cart. coord. in units of alat)
               a(1) = (   1.000000   0.000000   0.000000 )
               a(2) = (   0.000000   0.604300   0.000000 )
               a(3) = (   0.000000   0.000000   1.146000 )

     reciprocal axes: (cart. coord. in units 2 pi/alat)
               b(1) = (  1.000000  0.000000  0.000000 )
               b(2) = (  0.000000  1.654807  0.000000 )
               b(3) = (  0.000000  0.000000  0.872600 )

     PseudoPot. # 1 for H  read from file:
     /home/ilia/espresso/pseudo/H.blyp-vbc.UPF
     MD5 check sum: 64d25ad537c4b939b17faee1147b797b
     Pseudo is Norm-conserving, Zval =  1.0
     Generated by new atomic code, or converted to UPF format
     Using radial grid of  243 points,  0 beta functions with:

     PseudoPot. # 2 for Ca read from file:
     /home/ilia/espresso/pseudo/Ca.blyp-sp-hgh.UPF
     MD5 check sum: 357a6b692114ea82b84239caae8ecfc0
     Pseudo is Norm-conserving, Zval = 10.0
     Generated in analytical, separable form
     Using radial grid of 1169 points,  5 beta functions with:
                l(1) =   0
                l(2) =   0
                l(3) =   1
                l(4) =   1
                l(5) =   2

     atomic species   valence    mass     pseudopotential
        H              1.00     1.00700     H ( 1.00)
        Ca            10.00    40.07800     Ca( 1.00)

      2 Sym. Ops. (no inversion) found ( 1 have fractional translation)

   Cartesian axes

     site n.     atom                  positions (alat units)
         1           Ca  tau(   1) = (   0.2400000   0.1510750   0.1259454  )
         2           Ca  tau(   2) = (   0.2600000  -0.1510750   0.6989454  )
         3           Ca  tau(   3) = (   0.7400000   0.1510750   0.4470546  )
         4           Ca  tau(   4) = (  -0.2400000  -0.1510750  -0.1259454  )
         5           H   tau(   5) = (   0.3557000   0.1510750   0.4887690  )
         6           H   tau(   6) = (   0.1443000  -0.1510750   1.0617690  )
         7           H   tau(   7) = (   0.8557000   0.1510750   0.0842310  )
         8           H   tau(   8) = (  -0.3557000  -0.1510750  -0.4922070  )
         9           H   tau(   9) = (   0.9754000   0.1510750   0.7752690  )
        10           H   tau(  10) = (  -0.4754000  -0.1510750   1.3482690  )
        11           H   tau(  11) = (   1.4754000   0.1510750  -0.1988310  )
        12           H   tau(  12) = (  -0.9754000  -0.1510750  -0.7752690  )

     number of k points=    24
                       cart. coord. in units 2pi/alat
        k(    1) = (   0.1250000   0.1379006   0.1090750), wk =   0.0833333
        k(    2) = (   0.1250000   0.1379006   0.3272251), wk =   0.0833333
        k(    3) = (   0.1250000   0.4137018   0.1090750), wk =   0.0833333
        k(    4) = (   0.1250000   0.4137018   0.3272251), wk =   0.0833333
        k(    5) = (   0.1250000   0.6895030   0.1090750), wk =   0.0833333
        k(    6) = (   0.1250000   0.6895030   0.3272251), wk =   0.0833333
        k(    7) = (   0.3750000   0.1379006   0.1090750), wk =   0.0833333
        k(    8) = (   0.3750000   0.1379006   0.3272251), wk =   0.0833333
        k(    9) = (   0.3750000   0.4137018   0.1090750), wk =   0.0833333
        k(   10) = (   0.3750000   0.4137018   0.3272251), wk =   0.0833333
        k(   11) = (   0.3750000   0.6895030   0.1090750), wk =   0.0833333
        k(   12) = (   0.3750000   0.6895030   0.3272251), wk =   0.0833333
        k(   13) = (   0.1250000  -0.1379006  -0.1090750), wk =   0.0833333
        k(   14) = (   0.1250000  -0.1379006  -0.3272251), wk =   0.0833333
        k(   15) = (   0.1250000  -0.4137018  -0.1090750), wk =   0.0833333
        k(   16) = (   0.1250000  -0.4137018  -0.3272251), wk =   0.0833333
        k(   17) = (   0.1250000  -0.6895030  -0.1090750), wk =   0.0833333
        k(   18) = (   0.1250000  -0.6895030  -0.3272251), wk =   0.0833333
        k(   19) = (   0.3750000  -0.1379006  -0.1090750), wk =   0.0833333
        k(   20) = (   0.3750000  -0.1379006  -0.3272251), wk =   0.0833333
        k(   21) = (   0.3750000  -0.4137018  -0.1090750), wk =   0.0833333
        k(   22) = (   0.3750000  -0.4137018  -0.3272251), wk =   0.0833333
        k(   23) = (   0.3750000  -0.6895030  -0.1090750), wk =   0.0833333
        k(   24) = (   0.3750000  -0.6895030  -0.3272251), wk =   0.0833333

     Largest allocated arrays     est. size (Mb)     dimensions
     Largest temporary arrays     est. size (Mb)     dimensions

     Initial potential from superposition of free atoms

     starting charge   47.97855, renormalised to   48.00000
     Starting wfc are   60 randomized atomic wfcs

     Self-consistent Calculation

     iteration #  1     ecut=   120.00 Ry     beta=0.30
     Davidson diagonalization with overlap
     ethr =  1.00E-02,  avg # of iterations =  2.0

     total energy              =    -303.26829437 Ry
     Harris-Foulkes estimate   =    -303.32763333 Ry
     estimated scf accuracy    <       0.53771072 Ry

[...]

     End of self-consistent calculation

          k = 0.1250 0.1379 0.1091 ( 22044 PWs)   bands (ev):

   -35.5381 -35.5195 -35.5034 -35.4917 -16.0610 -16.0017 -15.9786 -15.9210
   -15.8888 -15.8630 -15.8572 -15.8321 -15.8184 -15.8057 -15.8003 -15.7975
    -0.1791   1.8287   2.3145   2.7818   3.2669   3.4819   3.7441   4.3824

[...]

!    total energy              =    -303.19878176 Ry
     Harris-Foulkes estimate   =    -303.19878137 Ry
     estimated scf accuracy    <       0.00000037 Ry

     The total energy is the sum of the following terms:

     one-electron contribution =    -122.16494191 Ry
     hartree contribution      =      68.50573643 Ry
     xc contribution           =     -46.77286363 Ry
     ewald contribution        =    -202.76671265 Ry

     convergence has been achieved in   9 iterations

     Forces acting on atoms (Ry/au):

     atom    1 type  2   force =    -0.00108801    0.00000000   -0.00075751
     atom    2 type  2   force =     0.00084106    0.00000000   -0.00178645
     atom    3 type  2   force =    -0.00073453    0.00000000   -0.00017612
     atom    4 type  2   force =     0.00085143    0.00000000    0.00125143
     atom    5 type  1   force =     0.00026170    0.00000000    0.00107056
     atom    6 type  1   force =    -0.00051019    0.00000000    0.00040757
     atom    7 type  1   force =     0.00049251    0.00000000   -0.00071537
     atom    8 type  1   force =    -0.00066422    0.00000000    0.00258858
     atom    9 type  1   force =    -0.00091238    0.00000000   -0.00282808
     atom   10 type  1   force =     0.00075473    0.00000000   -0.00292821
     atom   11 type  1   force =    -0.00029727    0.00000000    0.00094159
     atom   12 type  1   force =     0.00100517    0.00000000    0.00293203

     Total force =     0.006827     Total SCF correction =     0.002152
     SCF correction compared to forces is large: reduce conv_thr to get better values

     entering subroutine stress ...

          total   stress  (Ry/bohr**3)                   (kbar)     P=   -7.39
  -0.00004492   0.00000000   0.00000007         -6.61      0.00      0.01
   0.00000000  -0.00005786   0.00000000          0.00     -8.51      0.00
   0.00000007   0.00000000  -0.00004785          0.01      0.00     -7.04

     BFGS Geometry Optimization

     number of scf cycles    =   1
     number of bfgs steps    =   0

     enthalpy new            =    -303.1987817581 Ry

     new trust radius        =       0.0091214960 bohr
     new conv_thr            =       0.0000010000 Ry

     new unit-cell volume =    990.29050 a.u.^3 (   146.74591 Ang^3 )

CELL_PARAMETERS (alat= 11.28030000)
   0.998876959   0.000000000   0.000001858
   0.000000000   0.603425844   0.000000000
   0.000002129   0.000000000   1.144629048

ATOMIC_POSITIONS (crystal)
Ca       0.239903548   0.250000000   0.109841402    1   0   1
Ca       0.260074560  -0.250000000   0.609761807    1   0   1
Ca       0.739934884   0.250000000   0.390086376    1   0   1
Ca      -0.239924521  -0.250000000  -0.109803194    1   0   1
H        0.355723200   0.250000000   0.426582814    1   0   1
H        0.144254772  -0.250000000   0.926531528    1   0   1
H        0.855743661   0.250000000   0.073444662    1   0   1
H       -0.355758883  -0.250000000  -0.429299758    1   0   1
H        0.975319117   0.250000000   0.676281230    1   0   1
H       -0.475333093  -0.250000000   1.176273485    1   0   1
H        1.475373647   0.250000000  -0.173427162    1   0   1
H       -0.975310892  -0.250000000  -0.676273190    1   0   1

     Writing output data file CaH2_ambient.save
     NEW-OLD atomic charge density approx. for the potential
     NEW k-points:
        k(    1) = (   0.1251403   0.1381004   0.1092055), wk =   0.0833333
        k(    2) = (   0.1251399   0.1381004   0.3276168), wk =   0.0833333
        k(    3) = (   0.1251403   0.4143011   0.1092055), wk =   0.0833333
        k(    4) = (   0.1251399   0.4143011   0.3276168), wk =   0.0833333
        k(    5) = (   0.1251403   0.6905019   0.1092055), wk =   0.0833333
        k(    6) = (   0.1251399   0.6905019   0.3276168), wk =   0.0833333
        k(    7) = (   0.3754214   0.1381004   0.1092050), wk =   0.0833333
        k(    8) = (   0.3754210   0.1381004   0.3276164), wk =   0.0833333
        k(    9) = (   0.3754214   0.4143011   0.1092050), wk =   0.0833333
        k(   10) = (   0.3754210   0.4143011   0.3276164), wk =   0.0833333
        k(   11) = (   0.3754214   0.6905019   0.1092050), wk =   0.0833333
        k(   12) = (   0.3754210   0.6905019   0.3276164), wk =   0.0833333
        k(   13) = (   0.1251407  -0.1381004  -0.1092059), wk =   0.0833333
        k(   14) = (   0.1251411  -0.1381004  -0.3276173), wk =   0.0833333
        k(   15) = (   0.1251407  -0.4143011  -0.1092059), wk =   0.0833333
        k(   16) = (   0.1251411  -0.4143011  -0.3276173), wk =   0.0833333
        k(   17) = (   0.1251407  -0.6905019  -0.1092059), wk =   0.0833333
        k(   18) = (   0.1251411  -0.6905019  -0.3276173), wk =   0.0833333
        k(   19) = (   0.3754218  -0.1381004  -0.1092064), wk =   0.0833333
        k(   20) = (   0.3754222  -0.1381004  -0.3276178), wk =   0.0833333
        k(   21) = (   0.3754218  -0.4143011  -0.1092064), wk =   0.0833333
        k(   22) = (   0.3754222  -0.4143011  -0.3276178), wk =   0.0833333
        k(   23) = (   0.3754218  -0.6905019  -0.1092064), wk =   0.0833333
        k(   24) = (   0.3754222  -0.6905019  -0.3276178), wk =   0.0833333
     extrapolated charge   47.81886, renormalised to   48.00000

[...]

     enthalpy old            =    -303.1987817581 Ry
     enthalpy new            =    -303.1989903885 Ry

     CASE: enthalpy_new < enthalpy_old

     WARNING: bfgs curvature condition failed, Theta= 0.977
     new trust radius        =       0.0136762725 bohr
     new conv_thr            =       0.0000000209 Ry

[...]

     Threshold (ethr) on eigenvalues was too large:
     Diagonalizing with lowered threshold

     Davidson diagonalization with overlap
     ethr =  8.82E-08,  avg # of iterations =  3.1

[...]

     Total force =     0.002809     Total SCF correction =     0.000202

[...]

     WARNING: bfgs curvature condition failed, Theta= 0.656
     uphill step: resetting bfgs history

[...]

     WARNING: info= 24 for Hessian
     new trust radius        =       0.0044491323 bohr
     new conv_thr            =       0.0000000100 Ry

[...]

     WARNING: info= 24 for Hessian
     uphill step: resetting bfgs history

[...]

     WARNING: bfgs curvature condition failed, Theta= 0.724
     uphill step: resetting bfgs history

[...]

     WARNING: bfgs curvature condition failed, Theta= 0.779
     new trust radius        =       0.0037089247 bohr
     new conv_thr            =       0.0000000100 Ry

[...]

     number of scf cycles    =  21
     number of bfgs steps    =  20

     enthalpy old            =    -303.1994210678 Ry
     enthalpy new            =    -303.1994332405 Ry

     CASE: enthalpy_new < enthalpy_old

     new trust radius        =       0.0055631970 bohr
     new conv_thr            =       0.0000000100 Ry

     new unit-cell volume =    979.84044 a.u.^3 (   145.19737 Ang^3 )

[...]

ATOMIC_POSITIONS (crystal)
Ca       0.239457621   0.250000000   0.109827267    1   0   1
Ca       0.260271562  -0.250000000   0.609676568    1   0   1
Ca       0.739387344   0.250000000   0.389725895    1   0   1
Ca      -0.239637640  -0.250000000  -0.109991030    1   0   1
H        0.356569972   0.250000000   0.426974541    1   0   1
H        0.143393104  -0.250000000   0.926784058    1   0   1
H        0.856770265   0.250000000   0.072981633    1   0   1
H       -0.356781411  -0.250000000  -0.427068643    1   0   1
H        0.974247262   0.250000000   0.673352642    1   0   1
H       -0.474111760  -0.250000000   1.173780770    1   0   1
H        1.474647446   0.250000000  -0.172497892    1   0   1
H       -0.974213763  -0.250000000  -0.673545809    1   0   1

     Writing output data file CaH2_ambient.save
     NEW-OLD atomic charge density approx. for the potential
     NEW k-points:
        k(    1) = (   0.1254386   0.1387865   0.1095621), wk =   0.0833333
        k(    2) = (   0.1254371   0.1387865   0.3286882), wk =   0.0833333
        k(    3) = (   0.1254386   0.4163595   0.1095621), wk =   0.0833333
        k(    4) = (   0.1254371   0.4163595   0.3286882), wk =   0.0833333
        k(    5) = (   0.1254386   0.6939325   0.1095621), wk =   0.0833333
        k(    6) = (   0.1254371   0.6939325   0.3286882), wk =   0.0833333
        k(    7) = (   0.3763175   0.1387865   0.1095603), wk =   0.0833333
        k(    8) = (   0.3763159   0.1387865   0.3286864), wk =   0.0833333
        k(    9) = (   0.3763175   0.4163595   0.1095603), wk =   0.0833333
        k(   10) = (   0.3763159   0.4163595   0.3286864), wk =   0.0833333
        k(   11) = (   0.3763175   0.6939325   0.1095603), wk =   0.0833333
        k(   12) = (   0.3763159   0.6939325   0.3286864), wk =   0.0833333
        k(   13) = (   0.1254402  -0.1387865  -0.1095639), wk =   0.0833333
        k(   14) = (   0.1254418  -0.1387865  -0.3286900), wk =   0.0833333
        k(   15) = (   0.1254402  -0.4163595  -0.1095639), wk =   0.0833333
        k(   16) = (   0.1254418  -0.4163595  -0.3286900), wk =   0.0833333
        k(   17) = (   0.1254402  -0.6939325  -0.1095639), wk =   0.0833333
        k(   18) = (   0.1254418  -0.6939325  -0.3286900), wk =   0.0833333
        k(   19) = (   0.3763191  -0.1387865  -0.1095658), wk =   0.0833333
        k(   20) = (   0.3763207  -0.1387865  -0.3286918), wk =   0.0833333
        k(   21) = (   0.3763191  -0.4163595  -0.1095658), wk =   0.0833333
        k(   22) = (   0.3763207  -0.4163595  -0.3286918), wk =   0.0833333
        k(   23) = (   0.3763191  -0.6939325  -0.1095658), wk =   0.0833333
        k(   24) = (   0.3763207  -0.6939325  -0.3286918), wk =   0.0833333
     extrapolated charge   47.98995, renormalised to   48.00000

[...]

     Threshold (ethr) on eigenvalues was too large:
     Diagonalizing with lowered threshold

     Davidson diagonalization with overlap
     ethr =  1.22E-08,  avg # of iterations =  3.4

[...]

     Total force =     0.001779     Total SCF correction =     0.000445
     SCF correction compared to forces is large: reduce conv_thr to get better values

[...]

     bfgs converged in  22 scf cycles and  21 bfgs steps
     (criteria: energy < 0.10E-03, force < 0.10E-02, cell < 0.50E+00)

     End of BFGS Geometry Optimization

     Final enthalpy =    -303.1994475445 Ry
Begin final coordinates
     new unit-cell volume =    979.84044 a.u.^3 (   145.19737 Ang^3 )

CELL_PARAMETERS (alat= 11.28030000)
   0.996496875   0.000000000   0.000007207
   0.000000000   0.600442614   0.000000000
   0.000008272   0.000000000   1.140895755

ATOMIC_POSITIONS (crystal)
Ca       0.239457621   0.250000000   0.109827267    1   0   1
Ca       0.260271562  -0.250000000   0.609676568    1   0   1
Ca       0.739387344   0.250000000   0.389725895    1   0   1
Ca      -0.239637640  -0.250000000  -0.109991030    1   0   1
H        0.356569972   0.250000000   0.426974541    1   0   1
H        0.143393104  -0.250000000   0.926784058    1   0   1
H        0.856770265   0.250000000   0.072981633    1   0   1
H       -0.356781411  -0.250000000  -0.427068643    1   0   1
H        0.974247262   0.250000000   0.673352642    1   0   1
H       -0.474111760  -0.250000000   1.173780770    1   0   1
H        1.474647446   0.250000000  -0.172497892    1   0   1
H       -0.974213763  -0.250000000  -0.673545809    1   0   1
End final coordinates

     A final scf calculation at the relaxed structure.
     The G-vectors are recalculated for the final unit cell
     Results may differ from those at the preceding step.

     bravais-lattice index     =            8
     lattice parameter (alat)  =      11.2803  a.u.
     unit-cell volume          =     979.8404 (a.u.)^3
     number of atoms/cell      =           12
     number of atomic types    =            2
     number of electrons       =        48.00
     number of Kohn-Sham states=           24
     kinetic-energy cutoff     =     120.0000  Ry
     charge density cutoff     =     480.0000  Ry
     convergence threshold     =      1.0E-08
     mixing beta               =       0.3000
     number of iterations used =           16  local-TF  mixing
     Exchange-correlation      = BLYP ( 1 3 1 3 0)
     EXX-fraction              =        0.00

     celldm(1)=  11.280300  celldm(2)=   0.604300  celldm(3)=   1.146000
     celldm(4)=   0.000000  celldm(5)=   0.000000  celldm(6)=   0.000000

     crystal axes: (cart. coord. in units of alat)
               a(1) = (   0.996497   0.000000   0.000007 )
               a(2) = (   0.000000   0.600443   0.000000 )
               a(3) = (   0.000008   0.000000   1.140896 )

     reciprocal axes: (cart. coord. in units 2 pi/alat)
               b(1) = (  1.003515  0.000000 -0.000007 )
               b(2) = (  0.000000  1.665438  0.000000 )
               b(3) = ( -0.000006  0.000000  0.876504 )

     PseudoPot. # 1 for H  read from file:
     /home/ilia/espresso/pseudo/H.blyp-vbc.UPF
     MD5 check sum: 64d25ad537c4b939b17faee1147b797b
     Pseudo is Norm-conserving, Zval =  1.0
     Generated by new atomic code, or converted to UPF format
     Using radial grid of  243 points,  0 beta functions with:

     PseudoPot. # 2 for Ca read from file:
     /home/ilia/espresso/pseudo/Ca.blyp-sp-hgh.UPF
     MD5 check sum: 357a6b692114ea82b84239caae8ecfc0
     Pseudo is Norm-conserving, Zval = 10.0
     Generated in analytical, separable form
     Using radial grid of 1169 points,  5 beta functions with:
                l(1) =   0
                l(2) =   0
                l(3) =   1
                l(4) =   1
                l(5) =   2

     atomic species   valence    mass     pseudopotential
        H              1.00     1.00700     H ( 1.00)
        Ca            10.00    40.07800     Ca( 1.00)

      2 Sym. Ops. (no inversion) found ( 1 have fractional translation)

   Cartesian axes

     site n.     atom                  positions (alat units)
         1           Ca  tau(   1) = (   0.2386197   0.1501107   0.1253032  )
         2           Ca  tau(   2) = (   0.2593648  -0.1501107   0.6955793  )
         3           Ca  tau(   3) = (   0.7368004   0.1501107   0.4446419  )
         4           Ca  tau(   4) = (  -0.2387991  -0.1501107  -0.1254900  )
         5           H   tau(   5) = (   0.3553244   0.1501107   0.4871360  )
         6           H   tau(   6) = (   0.1428984  -0.1501107   1.0573650  )
         7           H   tau(   7) = (   0.8537695   0.1501107   0.0832706  )
         8           H   tau(   8) = (  -0.3555351  -0.1501107  -0.4872434  )
         9           H   tau(   9) = (   0.9708399   0.1501107   0.7682322  )
        10           H   tau(  10) = (  -0.4724412  -0.1501107   1.3391581  )
        11           H   tau(  11) = (   1.4694801   0.1501107  -0.1967915  )
        12           H   tau(  12) = (  -0.9708065  -0.1501107  -0.7684526  )

     number of k points=    24
                       cart. coord. in units 2pi/alat
        k(    1) = (   0.1254386   0.1387865   0.1095621), wk =   0.0833333
        k(    2) = (   0.1254371   0.1387865   0.3286882), wk =   0.0833333
        k(    3) = (   0.1254386   0.4163595   0.1095621), wk =   0.0833333
        k(    4) = (   0.1254371   0.4163595   0.3286882), wk =   0.0833333
        k(    5) = (   0.1254386   0.6939325   0.1095621), wk =   0.0833333
        k(    6) = (   0.1254371   0.6939325   0.3286882), wk =   0.0833333
        k(    7) = (   0.3763175   0.1387865   0.1095603), wk =   0.0833333
        k(    8) = (   0.3763159   0.1387865   0.3286864), wk =   0.0833333
        k(    9) = (   0.3763175   0.4163595   0.1095603), wk =   0.0833333
        k(   10) = (   0.3763159   0.4163595   0.3286864), wk =   0.0833333
        k(   11) = (   0.3763175   0.6939325   0.1095603), wk =   0.0833333
        k(   12) = (   0.3763159   0.6939325   0.3286864), wk =   0.0833333
        k(   13) = (   0.1254402  -0.1387865  -0.1095639), wk =   0.0833333
        k(   14) = (   0.1254418  -0.1387865  -0.3286900), wk =   0.0833333
        k(   15) = (   0.1254402  -0.4163595  -0.1095639), wk =   0.0833333
        k(   16) = (   0.1254418  -0.4163595  -0.3286900), wk =   0.0833333
        k(   17) = (   0.1254402  -0.6939325  -0.1095639), wk =   0.0833333
        k(   18) = (   0.1254418  -0.6939325  -0.3286900), wk =   0.0833333
        k(   19) = (   0.3763191  -0.1387865  -0.1095658), wk =   0.0833333
        k(   20) = (   0.3763207  -0.1387865  -0.3286918), wk =   0.0833333
        k(   21) = (   0.3763191  -0.4163595  -0.1095658), wk =   0.0833333
        k(   22) = (   0.3763207  -0.4163595  -0.3286918), wk =   0.0833333
        k(   23) = (   0.3763191  -0.6939325  -0.1095658), wk =   0.0833333
        k(   24) = (   0.3763207  -0.6939325  -0.3286918), wk =   0.0833333

     Largest allocated arrays     est. size (Mb)     dimensions
     Largest temporary arrays     est. size (Mb)     dimensions

     Initial potential from superposition of free atoms

     starting charge   47.97855, renormalised to   48.00000
     Starting wfc are   60 randomized atomic wfcs

     Writing output data file CaH2_ambient.save

     Self-consistent Calculation

[...]

     total energy              =    -303.19915672 Ry
     Harris-Foulkes estimate   =    -303.19915672 Ry
     estimated scf accuracy    <       0.00000001 Ry

     iteration # 16     ecut=   120.00 Ry     beta=0.30
     Davidson diagonalization with overlap
     ethr =  2.15E-11,  avg # of iterations =  1.0

     End of self-consistent calculation

[...]

          k = 0.3763-0.6939-0.3287 ( 21750 PWs)   bands (ev):

   -35.3374 -35.3351 -35.3296 -35.3288 -15.8840 -15.8802 -15.8583 -15.8538
   -15.7579 -15.7505 -15.7360 -15.7286 -15.6821 -15.6720 -15.6629 -15.6605
     2.1799   2.5151   2.7661   2.9774   3.1317   3.2284   3.4379   3.4896

!    total energy              =    -303.19915672 Ry
     Harris-Foulkes estimate   =    -303.19915672 Ry
     estimated scf accuracy    <          4.4E-09 Ry

     The total energy is the sum of the following terms:

     one-electron contribution =    -120.74207542 Ry
     hartree contribution      =      68.07428568 Ry
     xc contribution           =     -46.81652987 Ry
     ewald contribution        =    -203.71483710 Ry

     convergence has been achieved in  16 iterations

     Forces acting on atoms (Ry/au):

     atom    1 type  2   force =    -0.00167501    0.00000000    0.00157066
     atom    2 type  2   force =     0.00157283    0.00000000    0.00136583
     atom    3 type  2   force =    -0.00230464    0.00000000   -0.00106055
     atom    4 type  2   force =     0.00197444    0.00000000   -0.00124049
     atom    5 type  1   force =     0.00026248    0.00000000   -0.00004136
     atom    6 type  1   force =    -0.00013533    0.00000000    0.00000834
     atom    7 type  1   force =     0.00026642    0.00000000   -0.00003912
     atom    8 type  1   force =    -0.00013934    0.00000000    0.00005894
     atom    9 type  1   force =    -0.00009732    0.00000000   -0.00071199
     atom   10 type  1   force =     0.00022575    0.00000000   -0.00069324
     atom   11 type  1   force =    -0.00014292    0.00000000    0.00020915
     atom   12 type  1   force =     0.00019264    0.00000000    0.00057383

     Total force =     0.004811     Total SCF correction =     0.000286

     entering subroutine stress ...

          total   stress  (Ry/bohr**3)                   (kbar)     P=   -0.06
  -0.00000013   0.00000000   0.00000005         -0.02      0.00      0.01
   0.00000000  -0.00000143   0.00000000          0.00     -0.21      0.00
   0.00000005   0.00000000   0.00000030          0.01      0.00      0.04

     Writing output data file CaH2_ambient.save

     General routines

   This run was terminated on:  23:36:56  11Jun2014

   JOB DONE.