     Program PWSCF v.5.0.2 (svn rev. 9392) starts on 24Apr2014 at  5:24: 4

     Current dimensions of program PWSCF are:
     Max number of different atomic species (ntypx) = 10
     Max number of k-points (npk) =  40000
     Max angular momentum in pseudopotentials (lmaxx) =  3
     Waiting for input...
     Reading input from standard input

     bravais-lattice index     =            4
     lattice parameter (alat)  =       5.8600  a.u.
     unit-cell volume          =     232.1281 (a.u.)^3
     number of atoms/cell      =            5
     number of atomic types    =            3
     number of electrons       =        24.00
     number of Kohn-Sham states=           12
     kinetic-energy cutoff     =     100.0000  Ry
     charge density cutoff     =     320.0000  Ry
     convergence threshold     =      1.0E-06
     mixing beta               =       0.3000
     number of iterations used =           16  local-TF  mixing
     Exchange-correlation      = PBE ( 1 4 3 4 0)
     EXX-fraction              =        0.00
     nstep                     =           50

     celldm(1)=   5.860000  celldm(2)=   0.000000  celldm(3)=   1.332000
     celldm(4)=   0.000000  celldm(5)=   0.000000  celldm(6)=   0.000000

     crystal axes: (cart. coord. in units of alat)
               a(1) = (   1.000000   0.000000   0.000000 )
               a(2) = (  -0.500000   0.866025   0.000000 )
               a(3) = (   0.000000   0.000000   1.332000 )

     reciprocal axes: (cart. coord. in units 2 pi/alat)
               b(1) = (  1.000000  0.577350 -0.000000 )
               b(2) = (  0.000000  1.154701  0.000000 )
               b(3) = (  0.000000 -0.000000  0.750751 )

     PseudoPot. # 1 for H  read from file:
     /home/ilia/espresso/pseudo/H.pbe-sp-mt.ncpp
     MD5 check sum: 7a641936b52ccecd26bd1ad87cca5aed
     Pseudo is Norm-conserving, Zval =  1.0
     Generated by old ld1 code (numerical format)
     Using radial grid of 1076 points,  0 beta functions with:

     PseudoPot. # 2 for O  read from file:
     /home/ilia/espresso/pseudo/O.pbe-sp-mt.ncpp
     MD5 check sum: 8a3d23d410d2f3ebfd0a39faacc72cbb
     Pseudo is Norm-conserving, Zval =  6.0
     Generated by old ld1 code (numerical format)
     Using radial grid of 1130 points,  1 beta functions with:
                l(1) =   1

     PseudoPot. # 3 for Ca read from file:
     /home/ilia/espresso/pseudo/Ca.pbe-sp-mt_ion2.ncpp
     MD5 check sum: 4bcd670d05521f7b178fdf0a334578ab
     Pseudo is Norm-conserving, Zval = 10.0
     Generated by old ld1 code (numerical format)
     Using radial grid of 1153 points,  1 beta functions with:
                l(1) =   1

     atomic species   valence    mass     pseudopotential
        H              1.00     1.00700     H ( 1.00)
        O              6.00    16.00000     O ( 1.00)
        Ca            10.00    40.07800     Ca( 1.00)

      2 Sym. Ops. (no inversion) found

   Cartesian axes

     site n.     atom                  positions (alat units)
         1           Ca  tau(   1) = (   0.0000000   0.0000000   0.0000000  )
         2           O   tau(   2) = (   0.0000000   0.5773503   0.6287040  )
         3           O   tau(   3) = (   0.5000000   0.2886751   0.7166160  )
         4           H   tau(   4) = (   0.2500000   0.4330127   0.9430560  )
         5           H   tau(   5) = (   0.2500000   0.4330127   0.3889440  )

     number of k points=   171

     Number of k-points >= 100: set verbosity='high' to print them.

     Largest allocated arrays     est. size (Mb)     dimensions
     Largest temporary arrays     est. size (Mb)     dimensions

     Initial potential from superposition of free atoms

     starting charge   21.99998, renormalised to   24.00000
     Starting wfc are   14 randomized atomic wfcs

     Self-consistent Calculation

     iteration #  1     ecut=   100.00 Ry     beta=0.30
     Davidson diagonalization with overlap
     ethr =  1.00E-02,  avg # of iterations =  4.1

     total energy              =    -139.04604779 Ry
     Harris-Foulkes estimate   =    -139.19520853 Ry
     estimated scf accuracy    <       0.76764974 Ry

[...]

     End of self-consistent calculation

     Number of k-points >= 100: set verbosity='high' to print the bands.

!    total energy              =    -138.95168598 Ry
     Harris-Foulkes estimate   =    -138.95168650 Ry
     estimated scf accuracy    <       0.00000076 Ry

     The total energy is the sum of the following terms:

     one-electron contribution =     -26.04064477 Ry
     hartree contribution      =      27.58809022 Ry
     xc contribution           =     -26.13870518 Ry
     ewald contribution        =    -114.36042625 Ry

     convergence has been achieved in  32 iterations

     Forces acting on atoms (Ry/au):

     atom    1 type  3   force =    -0.00029570    0.00017073   -0.00114771
     atom    2 type  2   force =    -0.14432346    0.08332519   -0.18309947
     atom    3 type  2   force =     0.14370716   -0.08296937    0.19658348
     atom    4 type  1   force =     0.01556951   -0.00898906   -0.02906916
     atom    5 type  1   force =    -0.01465750    0.00846251    0.01673285

     Total force =     0.359464     Total SCF correction =     0.000606

     entering subroutine stress ...

          total   stress  (Ry/bohr**3)                   (kbar)     P= 1016.27
   0.00960679   0.00037459   0.00055401       1413.21     55.10     81.50
   0.00037459   0.01003932  -0.00031986         55.10   1476.84    -47.05
   0.00055401  -0.00031986   0.00107922         81.50    -47.05    158.76

     BFGS Geometry Optimization

     number of scf cycles    =   1
     number of bfgs steps    =   0

     enthalpy new            =    -137.2159135111 Ry

     new trust radius        =       0.4898547969 bohr
     new conv_thr            =       0.0000010000 Ry

     new unit-cell volume =    218.44812 a.u.^3 (    32.37067 Ang^3 )

CELL_PARAMETERS (alat=  5.86000000)
   1.053228431   0.009364688   0.013850335
  -0.518504158   0.916804922  -0.013850335
   0.018448646  -0.010651331   1.118932166

ATOMIC_POSITIONS (crystal)
Ca      -0.000033641   0.000033641  -0.000147038
O        0.316914282   0.683085718   0.448542310
O        0.683015604   0.316984396   0.563185187
H        0.501771275   0.498228725   0.704275820
H        0.498332480   0.501667520   0.294143720

     Writing output data file CaOH2_ambient.save
     NEW-OLD atomic charge density approx. for the potential
     NEW k-points: (use verbosity='high' to print them)
     extrapolated charge   22.62229, renormalised to   24.00000

[...]

     enthalpy old            =    -137.2159135111 Ry
     enthalpy new            =    -137.6677199517 Ry

     CASE: enthalpy_new < enthalpy_old

     WARNING: bfgs curvature condition failed, Theta= 0.935
     new trust radius        =       0.6231054191 bohr
     new conv_thr            =       0.0000010000 Ry

[...]

     Threshold (ethr) on eigenvalues was too large:
     Diagonalizing with lowered threshold

     Davidson diagonalization with overlap
     ethr =  6.41E-08,  avg # of iterations =  1.4

[...]

     number of scf cycles    =  38
     number of bfgs steps    =  37

     enthalpy old            =    -138.2485755562 Ry
     enthalpy new            =    -138.2485865953 Ry

     CASE: enthalpy_new < enthalpy_old

     new trust radius        =       0.0013564324 bohr
     new conv_thr            =       0.0000000100 Ry

     new unit-cell volume =    187.63116 a.u.^3 (    27.80407 Ang^3 )

[...]

ATOMIC_POSITIONS (crystal)
Ca      -0.000321218   0.000321218   0.102001941
O        0.316151067   0.683848933   0.428373313
O        0.683904812   0.316095188   0.775058213
H        0.500474739   0.499525261   0.602252766
H        0.499790601   0.500209399   0.102313766

     Writing output data file CaOH2_ambient.save
     NEW-OLD atomic charge density approx. for the potential
     NEW k-points: (use verbosity='high' to print them)
     extrapolated charge   24.00370, renormalised to   24.00000

[...]

     Threshold (ethr) on eigenvalues was too large:
     Diagonalizing with lowered threshold

     Davidson diagonalization with overlap
     ethr =  3.50E-09,  avg # of iterations =  3.0

[...]

     bfgs converged in  39 scf cycles and  38 bfgs steps
     (criteria: energy < 0.10E-03, force < 0.10E-02, cell < 0.50E+00)

     End of BFGS Geometry Optimization

     Final enthalpy =    -138.2485875365 Ry
Begin final coordinates
     new unit-cell volume =    187.63116 a.u.^3 (    27.80407 Ang^3 )

CELL_PARAMETERS (alat=  5.86000000)
   0.920836969   0.198924639   0.097783002
  -0.288144694   0.896930528  -0.097783002
   0.234090821  -0.135152398   1.093542381

ATOMIC_POSITIONS (crystal)
Ca      -0.000321218   0.000321218   0.102001941
O        0.316151067   0.683848933   0.428373313
O        0.683904812   0.316095188   0.775058213
H        0.500474739   0.499525261   0.602252766
H        0.499790601   0.500209399   0.102313766
End final coordinates

     A final scf calculation at the relaxed structure.
     The G-vectors are recalculated for the final unit cell
     Results may differ from those at the preceding step.

     bravais-lattice index     =            4
     lattice parameter (alat)  =       5.8600  a.u.
     unit-cell volume          =     187.6312 (a.u.)^3
     number of atoms/cell      =            5
     number of atomic types    =            3
     number of electrons       =        24.00
     number of Kohn-Sham states=           12
     kinetic-energy cutoff     =     100.0000  Ry
     charge density cutoff     =     320.0000  Ry
     convergence threshold     =      1.0E-08
     mixing beta               =       0.3000
     number of iterations used =           16  local-TF  mixing
     Exchange-correlation      = PBE ( 1 4 3 4 0)
     EXX-fraction              =        0.00

     celldm(1)=   5.860000  celldm(2)=   0.000000  celldm(3)=   1.332000
     celldm(4)=   0.000000  celldm(5)=   0.000000  celldm(6)=   0.000000

     crystal axes: (cart. coord. in units of alat)
               a(1) = (   0.920837   0.198925   0.097783 )
               a(2) = (  -0.288145   0.896931  -0.097783 )
               a(3) = (   0.234091  -0.135152   1.093542 )

     reciprocal axes: (cart. coord. in units 2 pi/alat)
               b(1) = (  1.037746  0.313387 -0.183415 )
               b(2) = ( -0.247472  1.055407  0.183415 )
               b(3) = ( -0.114922  0.066350  0.947261 )

     PseudoPot. # 1 for H  read from file:
     /home/ilia/espresso/pseudo/H.pbe-sp-mt.ncpp
     MD5 check sum: 7a641936b52ccecd26bd1ad87cca5aed
     Pseudo is Norm-conserving, Zval =  1.0
     Generated by old ld1 code (numerical format)
     Using radial grid of 1076 points,  0 beta functions with:

     PseudoPot. # 2 for O  read from file:
     /home/ilia/espresso/pseudo/O.pbe-sp-mt.ncpp
     MD5 check sum: 8a3d23d410d2f3ebfd0a39faacc72cbb
     Pseudo is Norm-conserving, Zval =  6.0
     Generated by old ld1 code (numerical format)
     Using radial grid of 1130 points,  1 beta functions with:
                l(1) =   1

     PseudoPot. # 3 for Ca read from file:
     /home/ilia/espresso/pseudo/Ca.pbe-sp-mt_ion2.ncpp
     MD5 check sum: 4bcd670d05521f7b178fdf0a334578ab
     Pseudo is Norm-conserving, Zval = 10.0
     Generated by old ld1 code (numerical format)
     Using radial grid of 1153 points,  1 beta functions with:
                l(1) =   1

     atomic species   valence    mass     pseudopotential
        H              1.00     1.00700     H ( 1.00)
        O              6.00    16.00000     O ( 1.00)
        Ca            10.00    40.07800     Ca( 1.00)

      2 Sym. Ops. (no inversion) found

   Cartesian axes

     site n.     atom                  positions (alat units)
         1           Ca  tau(   1) = (   0.0234894  -0.0135616   0.1114806  )
         2           O   tau(   2) = (   0.1943544   0.6183595   0.4324898  )
         3           O   tau(   3) = (   0.7201177   0.3148100   0.8835245  )
         4           H   tau(   4) = (   0.4579019   0.4662003   0.6586818  )
         5           H   tau(   5) = (   0.3400437   0.5342458   0.1118435  )

     number of k points=   171

     Number of k-points >= 100: set verbosity='high' to print them.

     Largest allocated arrays     est. size (Mb)     dimensions
     Largest temporary arrays     est. size (Mb)     dimensions

     Initial potential from superposition of free atoms

     starting charge   21.99998, renormalised to   24.00000
     Starting wfc are   14 randomized atomic wfcs

     Writing output data file CaOH2_ambient.save

     Self-consistent Calculation

[...]

     total energy              =    -139.66806491 Ry
     Harris-Foulkes estimate   =    -139.66806498 Ry
     estimated scf accuracy    <       0.00000017 Ry

     iteration # 11     ecut=   100.00 Ry     beta=0.30
     Davidson diagonalization with overlap
     ethr =  7.20E-10,  avg # of iterations =  2.0

     End of self-consistent calculation

     Number of k-points >= 100: set verbosity='high' to print the bands.

!    total energy              =    -139.66806494 Ry
     Harris-Foulkes estimate   =    -139.66806494 Ry
     estimated scf accuracy    <          3.3E-09 Ry

     The total energy is the sum of the following terms:

     one-electron contribution =      -9.84380385 Ry
     hartree contribution      =      22.10032372 Ry
     xc contribution           =     -26.76448333 Ry
     ewald contribution        =    -125.16010148 Ry

     convergence has been achieved in  11 iterations

     Forces acting on atoms (Ry/au):

     atom    1 type  3   force =     0.00049028   -0.00028306   -0.00068096
     atom    2 type  2   force =     0.00082485   -0.00047623    0.00078927
     atom    3 type  2   force =    -0.00108913    0.00062881    0.00010080
     atom    4 type  1   force =    -0.00016911    0.00009763   -0.00007605
     atom    5 type  1   force =    -0.00005689    0.00003284   -0.00013306

     Total force =     0.001993     Total SCF correction =     0.000090

     entering subroutine stress ...

          total   stress  (Ry/bohr**3)                   (kbar)     P= 1172.54
   0.00786730   0.00054976   0.00006059       1157.32     80.87      8.91
   0.00054976   0.00850210  -0.00003498         80.87   1250.70     -5.15
   0.00006059  -0.00003498   0.00754298          8.91     -5.15   1109.61

     Writing output data file CaOH2_ambient.save

     General routines

   This run was terminated on:   9: 5:53  24Apr2014

   JOB DONE.