     Program PWSCF v.5.0.2 (svn rev. 9392) starts on 22Apr2014 at  3:23:18

     Current dimensions of program PWSCF are:
     Max number of different atomic species (ntypx) = 10
     Max number of k-points (npk) =  40000
     Max angular momentum in pseudopotentials (lmaxx) =  3
     Waiting for input...
     Reading input from standard input

     bravais-lattice index     =            4
     lattice parameter (alat)  =       5.8600  a.u.
     unit-cell volume          =     232.1281 (a.u.)^3
     number of atoms/cell      =            5
     number of atomic types    =            3
     number of electrons       =        24.00
     number of Kohn-Sham states=           12
     kinetic-energy cutoff     =     100.0000  Ry
     charge density cutoff     =     320.0000  Ry
     convergence threshold     =      1.0E-06
     mixing beta               =       0.3000
     number of iterations used =           16  local-TF  mixing
     Exchange-correlation      = PBE ( 1 4 3 4 0)
     EXX-fraction              =        0.00
     nstep                     =           50

     celldm(1)=   5.860000  celldm(2)=   0.000000  celldm(3)=   1.332000
     celldm(4)=   0.000000  celldm(5)=   0.000000  celldm(6)=   0.000000

     crystal axes: (cart. coord. in units of alat)
               a(1) = (   1.000000   0.000000   0.000000 )
               a(2) = (  -0.500000   0.866025   0.000000 )
               a(3) = (   0.000000   0.000000   1.332000 )

     reciprocal axes: (cart. coord. in units 2 pi/alat)
               b(1) = (  1.000000  0.577350 -0.000000 )
               b(2) = (  0.000000  1.154701  0.000000 )
               b(3) = (  0.000000 -0.000000  0.750751 )

     PseudoPot. # 1 for H  read from file:
     /home/ilia/espresso/pseudo/H.pbe-sp-mt.ncpp
     MD5 check sum: 7a641936b52ccecd26bd1ad87cca5aed
     Pseudo is Norm-conserving, Zval =  1.0
     Generated by old ld1 code (numerical format)
     Using radial grid of 1076 points,  0 beta functions with:

     PseudoPot. # 2 for O  read from file:
     /home/ilia/espresso/pseudo/O.pbe-sp-mt.ncpp
     MD5 check sum: 8a3d23d410d2f3ebfd0a39faacc72cbb
     Pseudo is Norm-conserving, Zval =  6.0
     Generated by old ld1 code (numerical format)
     Using radial grid of 1130 points,  1 beta functions with:
                l(1) =   1

     PseudoPot. # 3 for Ca read from file:
     /home/ilia/espresso/pseudo/Ca.pbe-sp-mt_ion2.ncpp
     MD5 check sum: 4bcd670d05521f7b178fdf0a334578ab
     Pseudo is Norm-conserving, Zval = 10.0
     Generated by old ld1 code (numerical format)
     Using radial grid of 1153 points,  1 beta functions with:
                l(1) =   1

     atomic species   valence    mass     pseudopotential
        H              1.00     1.00700     H ( 1.00)
        O              6.00    16.00000     O ( 1.00)
        Ca            10.00    40.07800     Ca( 1.00)

      6 Sym. Ops. (no inversion) found

   Cartesian axes

     site n.     atom                  positions (alat units)
         1           Ca  tau(   1) = (   0.0000000   0.0000000   0.0000000  )
         2           O   tau(   2) = (   0.0000000   0.5773503   0.6287040  )
         3           O   tau(   3) = (   0.5000000   0.2886751   0.7166160  )
         4           H   tau(   4) = (   0.0000000   0.5773503   0.9430560  )
         5           H   tau(   5) = (   0.5000000   0.2886751   0.3889440  )

     number of k points=    63
                       cart. coord. in units 2pi/alat
        k(    1) = (   0.0833333   0.1443376   0.0625626), wk =   0.0370370
        k(    2) = (   0.0833333   0.1443376   0.1876877), wk =   0.0370370
        k(    3) = (   0.0833333   0.1443376   0.3128128), wk =   0.0370370
        k(    4) = (   0.0833333   0.3367877   0.0625626), wk =   0.0370370
        k(    5) = (   0.0833333   0.3367877   0.1876877), wk =   0.0370370
        k(    6) = (   0.0833333   0.3367877   0.3128128), wk =   0.0370370
        k(    7) = (   0.0833333   0.5292377   0.0625626), wk =   0.0370370
        k(    8) = (   0.0833333   0.5292377   0.1876877), wk =   0.0370370
        k(    9) = (   0.0833333   0.5292377   0.3128128), wk =   0.0370370
        k(   10) = (   0.0833333  -0.4330127   0.0625626), wk =   0.0370370
        k(   11) = (   0.0833333  -0.4330127   0.1876877), wk =   0.0370370
        k(   12) = (   0.0833333  -0.4330127   0.3128128), wk =   0.0370370
        k(   13) = (   0.0833333  -0.2405626   0.0625626), wk =   0.0370370
        k(   14) = (   0.0833333  -0.2405626   0.1876877), wk =   0.0370370
        k(   15) = (   0.0833333  -0.2405626   0.3128128), wk =   0.0370370
        k(   16) = (   0.0833333  -0.0481125   0.0625626), wk =   0.0185185
        k(   17) = (   0.0833333  -0.0481125   0.1876877), wk =   0.0185185
        k(   18) = (   0.0833333  -0.0481125   0.3128128), wk =   0.0185185
        k(   19) = (   0.2500000   0.4330127   0.0625626), wk =   0.0370370
        k(   20) = (   0.2500000   0.4330127   0.1876877), wk =   0.0370370
        k(   21) = (   0.2500000   0.4330127   0.3128128), wk =   0.0370370
        k(   22) = (   0.2500000   0.6254628   0.0625626), wk =   0.0370370
        k(   23) = (   0.2500000   0.6254628   0.1876877), wk =   0.0370370
        k(   24) = (   0.2500000   0.6254628   0.3128128), wk =   0.0370370
        k(   25) = (   0.2500000  -0.3367877   0.0625626), wk =   0.0370370
        k(   26) = (   0.2500000  -0.3367877   0.1876877), wk =   0.0370370
        k(   27) = (   0.2500000  -0.3367877   0.3128128), wk =   0.0370370
        k(   28) = (   0.2500000  -0.1443376   0.0625626), wk =   0.0185185
        k(   29) = (   0.2500000  -0.1443376   0.1876877), wk =   0.0185185
        k(   30) = (   0.2500000  -0.1443376   0.3128128), wk =   0.0185185
        k(   31) = (   0.4166667   0.7216878   0.0625626), wk =   0.0370370
        k(   32) = (   0.4166667   0.7216878   0.1876877), wk =   0.0370370
        k(   33) = (   0.4166667   0.7216878   0.3128128), wk =   0.0370370
        k(   34) = (   0.4166667  -0.2405626   0.0625626), wk =   0.0185185
        k(   35) = (   0.4166667  -0.2405626   0.1876877), wk =   0.0185185
        k(   36) = (   0.4166667  -0.2405626   0.3128128), wk =   0.0185185
        k(   37) = (  -0.0833333  -0.3367877   0.0625626), wk =   0.0370370
        k(   38) = (  -0.0833333  -0.3367877   0.1876877), wk =   0.0370370
        k(   39) = (  -0.0833333  -0.3367877   0.3128128), wk =   0.0370370
        k(   40) = (  -0.0833333  -0.5292377   0.0625626), wk =   0.0370370
        k(   41) = (  -0.0833333  -0.5292377   0.1876877), wk =   0.0370370
        k(   42) = (  -0.0833333  -0.5292377   0.3128128), wk =   0.0370370
        k(   43) = (  -0.0833333   0.4330127   0.0625626), wk =   0.0370370
        k(   44) = (  -0.0833333   0.4330127   0.1876877), wk =   0.0370370
        k(   45) = (  -0.0833333   0.4330127   0.3128128), wk =   0.0370370
        k(   46) = (  -0.0833333   0.2405626   0.0625626), wk =   0.0370370
        k(   47) = (  -0.0833333   0.2405626   0.1876877), wk =   0.0370370
        k(   48) = (  -0.0833333   0.2405626   0.3128128), wk =   0.0370370
        k(   49) = (  -0.0833333   0.0481125   0.0625626), wk =   0.0185185
        k(   50) = (  -0.0833333   0.0481125   0.1876877), wk =   0.0185185
        k(   51) = (  -0.0833333   0.0481125   0.3128128), wk =   0.0185185
        k(   52) = (  -0.2500000  -0.6254628   0.0625626), wk =   0.0370370
        k(   53) = (  -0.2500000  -0.6254628   0.1876877), wk =   0.0370370
        k(   54) = (  -0.2500000  -0.6254628   0.3128128), wk =   0.0370370
        k(   55) = (  -0.2500000   0.3367877   0.0625626), wk =   0.0370370
        k(   56) = (  -0.2500000   0.3367877   0.1876877), wk =   0.0370370
        k(   57) = (  -0.2500000   0.3367877   0.3128128), wk =   0.0370370
        k(   58) = (  -0.2500000   0.1443376   0.0625626), wk =   0.0185185
        k(   59) = (  -0.2500000   0.1443376   0.1876877), wk =   0.0185185
        k(   60) = (  -0.2500000   0.1443376   0.3128128), wk =   0.0185185
        k(   61) = (  -0.4166667   0.2405626   0.0625626), wk =   0.0185185
        k(   62) = (  -0.4166667   0.2405626   0.1876877), wk =   0.0185185
        k(   63) = (  -0.4166667   0.2405626   0.3128128), wk =   0.0185185

     Largest allocated arrays     est. size (Mb)     dimensions
     Largest temporary arrays     est. size (Mb)     dimensions

     Initial potential from superposition of free atoms

     starting charge   21.99998, renormalised to   24.00000
     Starting wfc are   14 randomized atomic wfcs

     Self-consistent Calculation

     iteration #  1     ecut=   100.00 Ry     beta=0.30
     Davidson diagonalization with overlap
     ethr =  1.00E-02,  avg # of iterations =  2.3

     total energy              =    -138.94986530 Ry
     Harris-Foulkes estimate   =    -139.04185099 Ry
     estimated scf accuracy    <       0.52656765 Ry

[...]

     End of self-consistent calculation

          k = 0.0833 0.1443 0.0626 (  3927 PWs)   bands (ev):

   -29.3065 -11.9448 -10.7842 -10.3875 -10.3814  -4.8109   1.6824   5.3356
     6.0939   6.7102   9.7753  11.2718

[...]

          k =-0.0833-0.3368 0.0626 (  3923 PWs)   bands (ev):

[...]

!    total energy              =    -139.05436489 Ry
     Harris-Foulkes estimate   =    -139.05436488 Ry
     estimated scf accuracy    <       0.00000049 Ry

     The total energy is the sum of the following terms:

     one-electron contribution =     -26.00484305 Ry
     hartree contribution      =      27.36434796 Ry
     xc contribution           =     -26.16570877 Ry
     ewald contribution        =    -114.24816104 Ry

     convergence has been achieved in  11 iterations

     Forces acting on atoms (Ry/au):

     atom    1 type  3   force =     0.00000000    0.00000000    0.00149915
     atom    2 type  2   force =     0.00000000   -0.00000000   -0.19004282
     atom    3 type  2   force =     0.00000000    0.00000000    0.17721185
     atom    4 type  1   force =     0.00000000    0.00000000    0.05072111
     atom    5 type  1   force =     0.00000000    0.00000000   -0.03938929

     Total force =     0.267669     Total SCF correction =     0.000970

     entering subroutine stress ...

          total   stress  (Ry/bohr**3)                   (kbar)     P=  943.94
   0.00867294  -0.00000000   0.00000000       1275.83     -0.00      0.00
  -0.00000000   0.00867294   0.00000000         -0.00   1275.83      0.00
   0.00000000  -0.00000000   0.00190454          0.00     -0.00    280.17

     BFGS Geometry Optimization

     number of scf cycles    =   1
     number of bfgs steps    =   0

     enthalpy new            =    -137.1607949253 Ry

     new trust radius        =       0.4763379365 bohr
     new conv_thr            =       0.0000010000 Ry

     new unit-cell volume =    200.92164 a.u.^3 (    29.77352 Ang^3 )

CELL_PARAMETERS (alat=  5.86000000)
   1.012887609  -0.000000000   0.000000000
  -0.506443804   0.877186401  -0.000000000
   0.000000000   0.000000000   1.123778509

ATOMIC_POSITIONS (crystal)
Ca       0.000000000   0.000000000   0.000192063
O        0.333333333   0.666666667   0.447652766
O        0.666666667   0.333333333   0.560703401
[...]

     new unit-cell volume =    181.86243 a.u.^3 (    26.94923 Ang^3 )

[...]

ATOMIC_POSITIONS (crystal)
Ca      -0.000000000  -0.000000000   0.002690365
O        0.333333333   0.666666667   0.289085363
O        0.666666667   0.333333333   0.714547277
H        0.333333333   0.666666667   0.672999157
H        0.666666667   0.333333333   0.330677837

     Writing output data file CaOH2_ambient.save
     NEW-OLD atomic charge density approx. for the potential
     NEW k-points:
        k(    1) = (   0.0735894   0.1274607   0.1024014), wk =   0.0370370
        k(    2) = (   0.0735894   0.1274607   0.3072041), wk =   0.0370370
        k(    3) = (   0.0735894   0.1274607   0.5120068), wk =   0.0370370
        k(    4) = (   0.0735894   0.2974082   0.1024014), wk =   0.0370370
        k(    5) = (   0.0735894   0.2974082   0.3072041), wk =   0.0370370
        k(    6) = (   0.0735894   0.2974082   0.5120068), wk =   0.0370370
        k(    7) = (   0.0735894   0.4673557   0.1024014), wk =   0.0370370
        k(    8) = (   0.0735894   0.4673557   0.3072041), wk =   0.0370370
        k(    9) = (   0.0735894   0.4673557   0.5120068), wk =   0.0370370
        k(   10) = (   0.0735894  -0.3823820   0.1024014), wk =   0.0370370
        k(   11) = (   0.0735894  -0.3823820   0.3072041), wk =   0.0370370
        k(   12) = (   0.0735894  -0.3823820   0.5120068), wk =   0.0370370
        k(   13) = (   0.0735894  -0.2124344   0.1024014), wk =   0.0370370
        k(   14) = (   0.0735894  -0.2124344   0.3072041), wk =   0.0370370
        k(   15) = (   0.0735894  -0.2124344   0.5120068), wk =   0.0370370
        k(   16) = (   0.0735894  -0.0424869   0.1024014), wk =   0.0185185
        k(   17) = (   0.0735894  -0.0424869   0.3072041), wk =   0.0185185
        k(   18) = (   0.0735894  -0.0424869   0.5120068), wk =   0.0185185
        k(   19) = (   0.2207683   0.3823820   0.1024014), wk =   0.0370370
        k(   20) = (   0.2207683   0.3823820   0.3072041), wk =   0.0370370
        k(   21) = (   0.2207683   0.3823820   0.5120068), wk =   0.0370370
        k(   22) = (   0.2207683   0.5523295   0.1024014), wk =   0.0370370
        k(   23) = (   0.2207683   0.5523295   0.3072041), wk =   0.0370370
        k(   24) = (   0.2207683   0.5523295   0.5120068), wk =   0.0370370
        k(   25) = (   0.2207683  -0.2974082   0.1024014), wk =   0.0370370
        k(   26) = (   0.2207683  -0.2974082   0.3072041), wk =   0.0370370
        k(   27) = (   0.2207683  -0.2974082   0.5120068), wk =   0.0370370
        k(   28) = (   0.2207683  -0.1274607   0.1024014), wk =   0.0185185
        k(   29) = (   0.2207683  -0.1274607   0.3072041), wk =   0.0185185
        k(   30) = (   0.2207683  -0.1274607   0.5120068), wk =   0.0185185
        k(   31) = (   0.3679472   0.6373033   0.1024014), wk =   0.0370370
        k(   32) = (   0.3679472   0.6373033   0.3072041), wk =   0.0370370
        k(   33) = (   0.3679472   0.6373033   0.5120068), wk =   0.0370370
        k(   34) = (   0.3679472  -0.2124344   0.1024014), wk =   0.0185185
        k(   35) = (   0.3679472  -0.2124344   0.3072041), wk =   0.0185185
        k(   36) = (   0.3679472  -0.2124344   0.5120068), wk =   0.0185185
        k(   37) = (  -0.0735894  -0.2974082   0.1024014), wk =   0.0370370
        k(   38) = (  -0.0735894  -0.2974082   0.3072041), wk =   0.0370370
        k(   39) = (  -0.0735894  -0.2974082   0.5120068), wk =   0.0370370
        k(   40) = (  -0.0735894  -0.4673557   0.1024014), wk =   0.0370370
        k(   41) = (  -0.0735894  -0.4673557   0.3072041), wk =   0.0370370
        k(   42) = (  -0.0735894  -0.4673557   0.5120068), wk =   0.0370370
        k(   43) = (  -0.0735894   0.3823820   0.1024014), wk =   0.0370370
        k(   44) = (  -0.0735894   0.3823820   0.3072041), wk =   0.0370370
        k(   45) = (  -0.0735894   0.3823820   0.5120068), wk =   0.0370370
        k(   46) = (  -0.0735894   0.2124344   0.1024014), wk =   0.0370370
        k(   47) = (  -0.0735894   0.2124344   0.3072041), wk =   0.0370370
        k(   48) = (  -0.0735894   0.2124344   0.5120068), wk =   0.0370370
        k(   49) = (  -0.0735894   0.0424869   0.1024014), wk =   0.0185185
        k(   50) = (  -0.0735894   0.0424869   0.3072041), wk =   0.0185185
        k(   51) = (  -0.0735894   0.0424869   0.5120068), wk =   0.0185185
        k(   52) = (  -0.2207683  -0.5523295   0.1024014), wk =   0.0370370
        k(   53) = (  -0.2207683  -0.5523295   0.3072041), wk =   0.0370370
        k(   54) = (  -0.2207683  -0.5523295   0.5120068), wk =   0.0370370
        k(   55) = (  -0.2207683   0.2974082   0.1024014), wk =   0.0370370
        k(   56) = (  -0.2207683   0.2974082   0.3072041), wk =   0.0370370
        k(   57) = (  -0.2207683   0.2974082   0.5120068), wk =   0.0370370
        k(   58) = (  -0.2207683   0.1274607   0.1024014), wk =   0.0185185
        k(   59) = (  -0.2207683   0.1274607   0.3072041), wk =   0.0185185
        k(   60) = (  -0.2207683   0.1274607   0.5120068), wk =   0.0185185
        k(   61) = (  -0.3679472   0.2124344   0.1024014), wk =   0.0185185
        k(   62) = (  -0.3679472   0.2124344   0.3072041), wk =   0.0185185
        k(   63) = (  -0.3679472   0.2124344   0.5120068), wk =   0.0185185
     extrapolated charge   23.99748, renormalised to   24.00000

[...]

     Threshold (ethr) on eigenvalues was too large:
     Diagonalizing with lowered threshold

     Davidson diagonalization with overlap
     ethr =  1.30E-09,  avg # of iterations =  3.0

[...]

     bfgs converged in  20 scf cycles and  19 bfgs steps
     (criteria: energy < 0.10E-03, force < 0.10E-02, cell < 0.50E+00)

     End of BFGS Geometry Optimization

     Final enthalpy =    -138.1255359897 Ry
Begin final coordinates
     new unit-cell volume =    181.86243 a.u.^3 (    26.94923 Ang^3 )

CELL_PARAMETERS (alat=  5.86000000)
   1.132408785  -0.000000000  -0.000000000
  -0.566204392   0.980694775  -0.000000000
   0.000000000   0.000000000   0.813791329

ATOMIC_POSITIONS (crystal)
Ca      -0.000000000  -0.000000000   0.002690365
O        0.333333333   0.666666667   0.289085363
O        0.666666667   0.333333333   0.714547277
H        0.333333333   0.666666667   0.672999157
H        0.666666667   0.333333333   0.330677837
End final coordinates

     A final scf calculation at the relaxed structure.
     The G-vectors are recalculated for the final unit cell
     Results may differ from those at the preceding step.

     bravais-lattice index     =            4
     lattice parameter (alat)  =       5.8600  a.u.
     unit-cell volume          =     181.8624 (a.u.)^3
     number of atoms/cell      =            5
     number of atomic types    =            3
     number of electrons       =        24.00
     number of Kohn-Sham states=           12
     kinetic-energy cutoff     =     100.0000  Ry
     charge density cutoff     =     320.0000  Ry
     convergence threshold     =      1.0E-08
     mixing beta               =       0.3000
     number of iterations used =           16  local-TF  mixing
     Exchange-correlation      = PBE ( 1 4 3 4 0)
     EXX-fraction              =        0.00

     celldm(1)=   5.860000  celldm(2)=   0.000000  celldm(3)=   1.332000
     celldm(4)=   0.000000  celldm(5)=   0.000000  celldm(6)=   0.000000

     crystal axes: (cart. coord. in units of alat)
               a(1) = (   1.132409  -0.000000  -0.000000 )
               a(2) = (  -0.566204   0.980695  -0.000000 )
               a(3) = (   0.000000   0.000000   0.813791 )

     reciprocal axes: (cart. coord. in units 2 pi/alat)
               b(1) = (  0.883073  0.509843 -0.000000 )
               b(2) = (  0.000000  1.019685 -0.000000 )
               b(3) = (  0.000000  0.000000  1.228816 )

     PseudoPot. # 1 for H  read from file:
     /home/ilia/espresso/pseudo/H.pbe-sp-mt.ncpp
     MD5 check sum: 7a641936b52ccecd26bd1ad87cca5aed
     Pseudo is Norm-conserving, Zval =  1.0
     Generated by old ld1 code (numerical format)
     Using radial grid of 1076 points,  0 beta functions with:

     PseudoPot. # 2 for O  read from file:
     /home/ilia/espresso/pseudo/O.pbe-sp-mt.ncpp
     MD5 check sum: 8a3d23d410d2f3ebfd0a39faacc72cbb
     Pseudo is Norm-conserving, Zval =  6.0
     Generated by old ld1 code (numerical format)
     Using radial grid of 1130 points,  1 beta functions with:
                l(1) =   1

     PseudoPot. # 3 for Ca read from file:
     /home/ilia/espresso/pseudo/Ca.pbe-sp-mt_ion2.ncpp
     MD5 check sum: 4bcd670d05521f7b178fdf0a334578ab
     Pseudo is Norm-conserving, Zval = 10.0
     Generated by old ld1 code (numerical format)
     Using radial grid of 1153 points,  1 beta functions with:
                l(1) =   1

     atomic species   valence    mass     pseudopotential
        H              1.00     1.00700     H ( 1.00)
        O              6.00    16.00000     O ( 1.00)
        Ca            10.00    40.07800     Ca( 1.00)

      6 Sym. Ops. (no inversion) found

   Cartesian axes

     site n.     atom                  positions (alat units)
         1           Ca  tau(   1) = (  -0.0000000  -0.0000000   0.0021894  )
         2           O   tau(   2) = (  -0.0000000   0.6537965   0.2352552  )
         3           O   tau(   3) = (   0.5662044   0.3268983   0.5814924  )
         4           H   tau(   4) = (  -0.0000000   0.6537965   0.5476809  )
         5           H   tau(   5) = (   0.5662044   0.3268983   0.2691028  )

     number of k points=    63
                       cart. coord. in units 2pi/alat
        k(    1) = (   0.0735894   0.1274607   0.1024014), wk =   0.0370370
        k(    2) = (   0.0735894   0.1274607   0.3072041), wk =   0.0370370
        k(    3) = (   0.0735894   0.1274607   0.5120068), wk =   0.0370370
        k(    4) = (   0.0735894   0.2974082   0.1024014), wk =   0.0370370
        k(    5) = (   0.0735894   0.2974082   0.3072041), wk =   0.0370370
        k(    6) = (   0.0735894   0.2974082   0.5120068), wk =   0.0370370
        k(    7) = (   0.0735894   0.4673557   0.1024014), wk =   0.0370370
        k(    8) = (   0.0735894   0.4673557   0.3072041), wk =   0.0370370
        k(    9) = (   0.0735894   0.4673557   0.5120068), wk =   0.0370370
        k(   10) = (   0.0735894  -0.3823820   0.1024014), wk =   0.0370370
        k(   11) = (   0.0735894  -0.3823820   0.3072041), wk =   0.0370370
        k(   12) = (   0.0735894  -0.3823820   0.5120068), wk =   0.0370370
        k(   13) = (   0.0735894  -0.2124344   0.1024014), wk =   0.0370370
        k(   14) = (   0.0735894  -0.2124344   0.3072041), wk =   0.0370370
        k(   15) = (   0.0735894  -0.2124344   0.5120068), wk =   0.0370370
        k(   16) = (   0.0735894  -0.0424869   0.1024014), wk =   0.0185185
        k(   17) = (   0.0735894  -0.0424869   0.3072041), wk =   0.0185185
        k(   18) = (   0.0735894  -0.0424869   0.5120068), wk =   0.0185185
        k(   19) = (   0.2207683   0.3823820   0.1024014), wk =   0.0370370
        k(   20) = (   0.2207683   0.3823820   0.3072041), wk =   0.0370370
        k(   21) = (   0.2207683   0.3823820   0.5120068), wk =   0.0370370
        k(   22) = (   0.2207683   0.5523295   0.1024014), wk =   0.0370370
        k(   23) = (   0.2207683   0.5523295   0.3072041), wk =   0.0370370
        k(   24) = (   0.2207683   0.5523295   0.5120068), wk =   0.0370370
        k(   25) = (   0.2207683  -0.2974082   0.1024014), wk =   0.0370370
        k(   26) = (   0.2207683  -0.2974082   0.3072041), wk =   0.0370370
        k(   27) = (   0.2207683  -0.2974082   0.5120068), wk =   0.0370370
        k(   28) = (   0.2207683  -0.1274607   0.1024014), wk =   0.0185185
        k(   29) = (   0.2207683  -0.1274607   0.3072041), wk =   0.0185185
        k(   30) = (   0.2207683  -0.1274607   0.5120068), wk =   0.0185185
        k(   31) = (   0.3679472   0.6373033   0.1024014), wk =   0.0370370
        k(   32) = (   0.3679472   0.6373033   0.3072041), wk =   0.0370370
        k(   33) = (   0.3679472   0.6373033   0.5120068), wk =   0.0370370
        k(   34) = (   0.3679472  -0.2124344   0.1024014), wk =   0.0185185
        k(   35) = (   0.3679472  -0.2124344   0.3072041), wk =   0.0185185
        k(   36) = (   0.3679472  -0.2124344   0.5120068), wk =   0.0185185
        k(   37) = (  -0.0735894  -0.2974082   0.1024014), wk =   0.0370370
        k(   38) = (  -0.0735894  -0.2974082   0.3072041), wk =   0.0370370
        k(   39) = (  -0.0735894  -0.2974082   0.5120068), wk =   0.0370370
        k(   40) = (  -0.0735894  -0.4673557   0.1024014), wk =   0.0370370
        k(   41) = (  -0.0735894  -0.4673557   0.3072041), wk =   0.0370370
        k(   42) = (  -0.0735894  -0.4673557   0.5120068), wk =   0.0370370
        k(   43) = (  -0.0735894   0.3823820   0.1024014), wk =   0.0370370
        k(   44) = (  -0.0735894   0.3823820   0.3072041), wk =   0.0370370
        k(   45) = (  -0.0735894   0.3823820   0.5120068), wk =   0.0370370
        k(   46) = (  -0.0735894   0.2124344   0.1024014), wk =   0.0370370
        k(   47) = (  -0.0735894   0.2124344   0.3072041), wk =   0.0370370
        k(   48) = (  -0.0735894   0.2124344   0.5120068), wk =   0.0370370
        k(   49) = (  -0.0735894   0.0424869   0.1024014), wk =   0.0185185
        k(   50) = (  -0.0735894   0.0424869   0.3072041), wk =   0.0185185
        k(   51) = (  -0.0735894   0.0424869   0.5120068), wk =   0.0185185
        k(   52) = (  -0.2207683  -0.5523295   0.1024014), wk =   0.0370370
        k(   53) = (  -0.2207683  -0.5523295   0.3072041), wk =   0.0370370
        k(   54) = (  -0.2207683  -0.5523295   0.5120068), wk =   0.0370370
        k(   55) = (  -0.2207683   0.2974082   0.1024014), wk =   0.0370370
        k(   56) = (  -0.2207683   0.2974082   0.3072041), wk =   0.0370370
        k(   57) = (  -0.2207683   0.2974082   0.5120068), wk =   0.0370370
        k(   58) = (  -0.2207683   0.1274607   0.1024014), wk =   0.0185185
        k(   59) = (  -0.2207683   0.1274607   0.3072041), wk =   0.0185185
        k(   60) = (  -0.2207683   0.1274607   0.5120068), wk =   0.0185185
        k(   61) = (  -0.3679472   0.2124344   0.1024014), wk =   0.0185185
        k(   62) = (  -0.3679472   0.2124344   0.3072041), wk =   0.0185185
        k(   63) = (  -0.3679472   0.2124344   0.5120068), wk =   0.0185185

     Largest allocated arrays     est. size (Mb)     dimensions
     Largest temporary arrays     est. size (Mb)     dimensions

     Initial potential from superposition of free atoms

     starting charge   21.99998, renormalised to   24.00000
     Starting wfc are   14 randomized atomic wfcs

     Writing output data file CaOH2_ambient.save

     Self-consistent Calculation

[...]

     total energy              =    -139.61528198 Ry
     Harris-Foulkes estimate   =    -139.61528196 Ry
     estimated scf accuracy    <       0.00000003 Ry

     iteration # 10     ecut=   100.00 Ry     beta=0.30
     Davidson diagonalization with overlap
     ethr =  1.27E-10,  avg # of iterations =  2.0

     End of self-consistent calculation

[...]

          k = 0.3679-0.2124 0.5120 (  3048 PWs)   bands (ev):

[...]

          k =-0.3679 0.2124 0.5120 (  3048 PWs)   bands (ev):

   -24.9481  -8.6716  -7.5903  -6.5041  -4.8627  -3.4559   4.4955   4.8533
     9.6879  11.5729  12.6308  12.6380

!    total energy              =    -139.61528197 Ry
     Harris-Foulkes estimate   =    -139.61528198 Ry
     estimated scf accuracy    <          9.1E-09 Ry

     The total energy is the sum of the following terms:

     one-electron contribution =      -6.45542158 Ry
     hartree contribution      =      20.89473565 Ry
     xc contribution           =     -26.81401883 Ry
     ewald contribution        =    -127.24057721 Ry

     convergence has been achieved in  10 iterations

     Forces acting on atoms (Ry/au):

     atom    1 type  3   force =    -0.00000000   -0.00000000   -0.00021395
     atom    2 type  2   force =     0.00000000    0.00000000    0.00001415
     atom    3 type  2   force =     0.00000000   -0.00000000    0.00023501
     atom    4 type  1   force =     0.00000000    0.00000000    0.00015555
     atom    5 type  1   force =    -0.00000000   -0.00000000   -0.00019076

     Total force =     0.000402     Total SCF correction =     0.000031

     entering subroutine stress ...

          total   stress  (Ry/bohr**3)                   (kbar)     P= 1241.70
   0.00859387   0.00000000   0.00000000       1264.20      0.00      0.00
  -0.00000000   0.00859387   0.00000000         -0.00   1264.20      0.00
   0.00000000   0.00000000   0.00813492          0.00      0.00   1196.69

     Writing output data file CaOH2_ambient.save

     General routines

   This run was terminated on:   4:22:19  22Apr2014

   JOB DONE.