     Program PWSCF v.5.0.2 (svn rev. 9392) starts on 24Apr2014 at  0:53:36

     Current dimensions of program PWSCF are:
     Max number of different atomic species (ntypx) = 10
     Max number of k-points (npk) =  40000
     Max angular momentum in pseudopotentials (lmaxx) =  3
     Waiting for input...
     Reading input from standard input

     bravais-lattice index     =            4
     lattice parameter (alat)  =       5.8600  a.u.
     unit-cell volume          =     232.1281 (a.u.)^3
     number of atoms/cell      =            5
     number of atomic types    =            3
     number of electrons       =        24.00
     number of Kohn-Sham states=           12
     kinetic-energy cutoff     =     100.0000  Ry
     charge density cutoff     =     320.0000  Ry
     convergence threshold     =      1.0E-06
     mixing beta               =       0.3000
     number of iterations used =           16  local-TF  mixing
     Exchange-correlation      = PBE ( 1 4 3 4 0)
     EXX-fraction              =        0.00
     nstep                     =           50

     celldm(1)=   5.860000  celldm(2)=   0.000000  celldm(3)=   1.332000
     celldm(4)=   0.000000  celldm(5)=   0.000000  celldm(6)=   0.000000

     crystal axes: (cart. coord. in units of alat)
               a(1) = (   1.000000   0.000000   0.000000 )
               a(2) = (  -0.500000   0.866025   0.000000 )
               a(3) = (   0.000000   0.000000   1.332000 )

     reciprocal axes: (cart. coord. in units 2 pi/alat)
               b(1) = (  1.000000  0.577350 -0.000000 )
               b(2) = (  0.000000  1.154701  0.000000 )
               b(3) = (  0.000000 -0.000000  0.750751 )

     PseudoPot. # 1 for H  read from file:
     /home/ilia/espresso/pseudo/H.pbe-sp-mt.ncpp
     MD5 check sum: 7a641936b52ccecd26bd1ad87cca5aed
     Pseudo is Norm-conserving, Zval =  1.0
     Generated by old ld1 code (numerical format)
     Using radial grid of 1076 points,  0 beta functions with:

     PseudoPot. # 2 for O  read from file:
     /home/ilia/espresso/pseudo/O.pbe-sp-mt.ncpp
     MD5 check sum: 8a3d23d410d2f3ebfd0a39faacc72cbb
     Pseudo is Norm-conserving, Zval =  6.0
     Generated by old ld1 code (numerical format)
     Using radial grid of 1130 points,  1 beta functions with:
                l(1) =   1

     PseudoPot. # 3 for Ca read from file:
     /home/ilia/espresso/pseudo/Ca.pbe-sp-mt_ion2.ncpp
     MD5 check sum: 4bcd670d05521f7b178fdf0a334578ab
     Pseudo is Norm-conserving, Zval = 10.0
     Generated by old ld1 code (numerical format)
     Using radial grid of 1153 points,  1 beta functions with:
                l(1) =   1

     atomic species   valence    mass     pseudopotential
        H              1.00     1.00700     H ( 1.00)
        O              6.00    16.00000     O ( 1.00)
        Ca            10.00    40.07800     Ca( 1.00)

      2 Sym. Ops. (no inversion) found

   Cartesian axes

     site n.     atom                  positions (alat units)
         1           Ca  tau(   1) = (   0.0000000   0.0000000   0.0000000  )
         2           O   tau(   2) = (   0.0000000   0.5773503   0.6287040  )
         3           O   tau(   3) = (   0.5000000   0.2886751   0.7166160  )
         4           H   tau(   4) = (   0.2500000   0.4330127   0.9430560  )
         5           H   tau(   5) = (   0.2500000   0.4330127   0.3889440  )

     number of k points=   171

     Number of k-points >= 100: set verbosity='high' to print them.

     Largest allocated arrays     est. size (Mb)     dimensions
     Largest temporary arrays     est. size (Mb)     dimensions

     Initial potential from superposition of free atoms

     starting charge   21.99998, renormalised to   24.00000
     Starting wfc are   14 randomized atomic wfcs

     Self-consistent Calculation

     iteration #  1     ecut=   100.00 Ry     beta=0.30
     Davidson diagonalization with overlap
     ethr =  1.00E-02,  avg # of iterations =  4.1

     total energy              =    -139.04604779 Ry
     Harris-Foulkes estimate   =    -139.19520853 Ry
     estimated scf accuracy    <       0.76764974 Ry

[...]

     End of self-consistent calculation

     Number of k-points >= 100: set verbosity='high' to print the bands.

!    total energy              =    -138.95168598 Ry
     Harris-Foulkes estimate   =    -138.95168650 Ry
     estimated scf accuracy    <       0.00000076 Ry

     The total energy is the sum of the following terms:

     one-electron contribution =     -26.04064477 Ry
     hartree contribution      =      27.58809022 Ry
     xc contribution           =     -26.13870518 Ry
     ewald contribution        =    -114.36042625 Ry

     convergence has been achieved in  32 iterations

     Forces acting on atoms (Ry/au):

     atom    1 type  3   force =    -0.00029570    0.00017073   -0.00114771
     atom    2 type  2   force =    -0.14432346    0.08332519   -0.18309947
     atom    3 type  2   force =     0.14370716   -0.08296937    0.19658348
     atom    4 type  1   force =     0.01556951   -0.00898906   -0.02906916
     atom    5 type  1   force =    -0.01465750    0.00846251    0.01673285

     Total force =     0.359464     Total SCF correction =     0.000606

     entering subroutine stress ...

          total   stress  (Ry/bohr**3)                   (kbar)     P= 1016.27
   0.00960679   0.00037459   0.00055401       1413.21     55.10     81.50
   0.00037459   0.01003932  -0.00031986         55.10   1476.84    -47.05
   0.00055401  -0.00031986   0.00107922         81.50    -47.05    158.76

     BFGS Geometry Optimization

     number of scf cycles    =   1
     number of bfgs steps    =   0

     enthalpy new            =    -137.5315085055 Ry

     new trust radius        =       0.3869352675 bohr
     new conv_thr            =       0.0000010000 Ry

     new unit-cell volume =    242.12246 a.u.^3 (    35.87885 Ang^3 )

CELL_PARAMETERS (alat=  5.86000000)
   1.087217747   0.009364688   0.013850335
  -0.535498815   0.946240532  -0.013850335
   0.018448646  -0.010651331   1.164205934

ATOMIC_POSITIONS (crystal)
Ca      -0.000033641   0.000033641  -0.000147038
O        0.316914282   0.683085718   0.448542310
O        0.683015604   0.316984396   0.563185187
H        0.501771275   0.498228725   0.704275820
H        0.498332480   0.501667520   0.294143720

     Writing output data file CaOH2_ambient.save
     NEW-OLD atomic charge density approx. for the potential
     NEW k-points: (use verbosity='high' to print them)
     extrapolated charge   24.90812, renormalised to   24.00000

[...]

     enthalpy old            =    -137.5315085055 Ry
     enthalpy new            =    -137.9284014493 Ry

     CASE: enthalpy_new < enthalpy_old

[...]

     CASE: enthalpy_new > enthalpy_old

[...]

     CASE: enthalpy_new > enthalpy_old

[...]

     Threshold (ethr) on eigenvalues was too large:
     Diagonalizing with lowered threshold

     Davidson diagonalization with overlap
     ethr =  2.08E-08,  avg # of iterations =  1.7

[...]

     Total force =     0.000660     Total SCF correction =     0.000109
     SCF correction compared to forces is large: reduce conv_thr to get better values

[...]

     number of scf cycles    =  47
     number of bfgs steps    =  43

     enthalpy old            =    -138.5127727748 Ry
     enthalpy new            =    -138.5127752725 Ry

     CASE: enthalpy_new < enthalpy_old

     new trust radius        =       0.0013828640 bohr
     new conv_thr            =       0.0000000100 Ry

     new unit-cell volume =    199.48885 a.u.^3 (    29.56120 Ang^3 )

[...]

ATOMIC_POSITIONS (crystal)
Ca      -0.001607952   0.001607952   0.089113155
O        0.312952819   0.687047181   0.415418456
O        0.682549112   0.317450888   0.773653167
H        0.518762743   0.481237257   0.609813920
H        0.487343278   0.512656722   0.122001302

     Writing output data file CaOH2_ambient.save
     NEW-OLD atomic charge density approx. for the potential
     NEW k-points: (use verbosity='high' to print them)
     extrapolated charge   24.00025, renormalised to   24.00000

[...]

     Threshold (ethr) on eigenvalues was too large:
     Diagonalizing with lowered threshold

     Davidson diagonalization with overlap
     ethr =  1.09E-09,  avg # of iterations =  3.0

[...]

     Total force =     0.000366     Total SCF correction =     0.000052
     SCF correction compared to forces is large: reduce conv_thr to get better values

[...]

     bfgs converged in  48 scf cycles and  44 bfgs steps
     (criteria: energy < 0.10E-03, force < 0.10E-02, cell < 0.50E+00)

     End of BFGS Geometry Optimization

     Final enthalpy =    -138.5127759448 Ry
Begin final coordinates
     new unit-cell volume =    199.48885 a.u.^3 (    29.56120 Ang^3 )

CELL_PARAMETERS (alat=  5.86000000)
   0.993810713   0.164378238   0.070900409
  -0.354549626   0.942854443  -0.070900409
   0.194375268  -0.112222613   1.016470982

ATOMIC_POSITIONS (crystal)
Ca      -0.001607952   0.001607952   0.089113155
O        0.312952819   0.687047181   0.415418456
O        0.682549112   0.317450888   0.773653167
H        0.518762743   0.481237257   0.609813920
H        0.487343278   0.512656722   0.122001302
End final coordinates

     A final scf calculation at the relaxed structure.
     The G-vectors are recalculated for the final unit cell
     Results may differ from those at the preceding step.

     bravais-lattice index     =            4
     lattice parameter (alat)  =       5.8600  a.u.
     unit-cell volume          =     199.4889 (a.u.)^3
     number of atoms/cell      =            5
     number of atomic types    =            3
     number of electrons       =        24.00
     number of Kohn-Sham states=           12
     kinetic-energy cutoff     =     100.0000  Ry
     charge density cutoff     =     320.0000  Ry
     convergence threshold     =      1.0E-08
     mixing beta               =       0.3000
     number of iterations used =           16  local-TF  mixing
     Exchange-correlation      = PBE ( 1 4 3 4 0)
     EXX-fraction              =        0.00

     celldm(1)=   5.860000  celldm(2)=   0.000000  celldm(3)=   1.332000
     celldm(4)=   0.000000  celldm(5)=   0.000000  celldm(6)=   0.000000

     crystal axes: (cart. coord. in units of alat)
               a(1) = (   0.993811   0.164378   0.070900 )
               a(2) = (  -0.354550   0.942854  -0.070900 )
               a(3) = (   0.194375  -0.112223   1.016471 )

     reciprocal axes: (cart. coord. in units 2 pi/alat)
               b(1) = (  0.958723  0.349633 -0.144731 )
               b(2) = ( -0.176570  1.005095  0.144731 )
               b(3) = ( -0.079188  0.045719  1.003986 )

     PseudoPot. # 1 for H  read from file:
     /home/ilia/espresso/pseudo/H.pbe-sp-mt.ncpp
     MD5 check sum: 7a641936b52ccecd26bd1ad87cca5aed
     Pseudo is Norm-conserving, Zval =  1.0
     Generated by old ld1 code (numerical format)
     Using radial grid of 1076 points,  0 beta functions with:

     PseudoPot. # 2 for O  read from file:
     /home/ilia/espresso/pseudo/O.pbe-sp-mt.ncpp
     MD5 check sum: 8a3d23d410d2f3ebfd0a39faacc72cbb
     Pseudo is Norm-conserving, Zval =  6.0
     Generated by old ld1 code (numerical format)
     Using radial grid of 1130 points,  1 beta functions with:
                l(1) =   1

     PseudoPot. # 3 for Ca read from file:
     /home/ilia/espresso/pseudo/Ca.pbe-sp-mt_ion2.ncpp
     MD5 check sum: 4bcd670d05521f7b178fdf0a334578ab
     Pseudo is Norm-conserving, Zval = 10.0
     Generated by old ld1 code (numerical format)
     Using radial grid of 1153 points,  1 beta functions with:
                l(1) =   1

     atomic species   valence    mass     pseudopotential
        H              1.00     1.00700     H ( 1.00)
        O              6.00    16.00000     O ( 1.00)
        Ca            10.00    40.07800     Ca( 1.00)

      2 Sym. Ops. (no inversion) found

   Cartesian axes

     site n.     atom                  positions (alat units)
         1           Ca  tau(   1) = (   0.0151533  -0.0087488   0.0903529  )
         2           O   tau(   2) = (   0.1481706   0.6526088   0.3957374  )
         3           O   tau(   3) = (   0.7161516   0.3246848   0.8122816  )
         4           H   tau(   4) = (   0.4634622   0.4705751   0.6225187  )
         5           H   tau(   5) = (   0.3262788   0.5497780   0.1222160  )

     number of k points=   171

     Number of k-points >= 100: set verbosity='high' to print them.

     Largest allocated arrays     est. size (Mb)     dimensions
     Largest temporary arrays     est. size (Mb)     dimensions

     Initial potential from superposition of free atoms

     starting charge   21.99998, renormalised to   24.00000
     Starting wfc are   14 randomized atomic wfcs

     Writing output data file CaOH2_ambient.save

     Self-consistent Calculation

[...]

     total energy              =    -139.75336575 Ry
     Harris-Foulkes estimate   =    -139.75336576 Ry
     estimated scf accuracy    <       0.00000002 Ry

     iteration # 13     ecut=   100.00 Ry     beta=0.30
     Davidson diagonalization with overlap
     ethr =  1.04E-10,  avg # of iterations =  2.0

     End of self-consistent calculation

     Number of k-points >= 100: set verbosity='high' to print the bands.

!    total energy              =    -139.75336576 Ry
     Harris-Foulkes estimate   =    -139.75336576 Ry
     estimated scf accuracy    <          1.0E-09 Ry

     The total energy is the sum of the following terms:

     one-electron contribution =     -14.55932306 Ry
     hartree contribution      =      23.60553008 Ry
     xc contribution           =     -26.67305137 Ry
     ewald contribution        =    -122.12652140 Ry

     convergence has been achieved in  13 iterations

     Forces acting on atoms (Ry/au):

     atom    1 type  3   force =     0.00007134   -0.00004119   -0.00007770
     atom    2 type  2   force =    -0.00004196    0.00002423    0.00054226
     atom    3 type  2   force =     0.00021443   -0.00012380   -0.00045771
     atom    4 type  1   force =    -0.00017306    0.00009992   -0.00000415
     atom    5 type  1   force =    -0.00007075    0.00004085   -0.00000269

     Total force =     0.000792     Total SCF correction =     0.000034

     entering subroutine stress ...

          total   stress  (Ry/bohr**3)                   (kbar)     P=  979.22
   0.00657281   0.00057288   0.00005231        966.89     84.27      7.70
   0.00057288   0.00723431  -0.00003020         84.27   1064.20     -4.44
   0.00005231  -0.00003020   0.00616260          7.70     -4.44    906.55

     Writing output data file CaOH2_ambient.save

     General routines

   This run was terminated on:   5:24: 4  24Apr2014

   JOB DONE.